 vasp.5.4.4.18Apr17-6-g9f103f2a35 (build Nov 21 2017 15:30:27) complex

 executed on             LinuxIFC date 2020.12.16  16:26:25

 INCAR:
 POTCAR:   PAW_PBE Ba_sv 06Sep2000
 POTCAR:   PAW_PBE Ge 05Jan2001

 POTCAR:   PAW_PBE Ba_sv 06Sep2000
   VRHFIN =Ba: 5s5p6s

   TITEL  = PAW_PBE Ba_sv 06Sep2000
   POMASS =  137.327; ZVAL   =   10.000    mass and valenz
   ENMAX  =  187.210; ENMIN  =  140.408 eV
   QCUT   =   -3.709; QGAM   =    7.419    optimization parameters

   Description
     l     E      TYP  RCUT    TYP  RCUT
     0   .000     23  2.800
     0   .000     23  2.800
     1   .000     23  2.700
     1  2.000     23  2.700
     2   .000     23  2.700
     2   .000     23  2.700

 POTCAR:   PAW_PBE Ge 05Jan2001
   VRHFIN =Ge: s2p2

   TITEL  = PAW_PBE Ge 05Jan2001
   POMASS =   72.610; ZVAL   =    4.000    mass and valenz
   ENMAX  =  173.807; ENMIN  =  130.355 eV
   QCUT   =   -3.574; QGAM   =    7.148    optimization parameters

   Description
     l     E      TYP  RCUT    TYP  RCUT
     0   .000     23  2.300
     0   .000     23  2.300
     1   .000     23  2.300
     1   .000     23  2.300
     2   .000     23  2.300
     3  -.100      7  2.300

 Optimization of the real space projectors (new method)

 maximal supplied QI-value         = 13.42
 optimisation between [QCUT,QGAM] = [ 11.40, 22.81] = [ 36.42,145.68] Ry
 Optimized for a Real-space Cutoff    1.56 Angstroem

   l    n(q)    QCUT    max X(q) W(low)/X(q) W(high)/X(q)  e(spline)
   0     11    11.404     7.198    0.14E-04    0.26E-04    0.99E-07
   0     11    11.404    15.603    0.29E-04    0.72E-04    0.44E-06
   1     10    11.404     3.746    0.20E-04    0.24E-04    0.43E-07
   1     10    11.404     4.362    0.22E-03    0.97E-04    0.22E-06
   2     10    11.404     5.782    0.83E-04    0.62E-05    0.27E-06
   2     10    11.404    65.505    0.42E-03    0.31E-04    0.12E-05
 Optimization of the real space projectors (new method)

 maximal supplied QI-value         = 16.25
 optimisation between [QCUT,QGAM] = [ 11.38, 22.75] = [ 36.24,144.96] Ry
 Optimized for a Real-space Cutoff    1.27 Angstroem

   l    n(q)    QCUT    max X(q) W(low)/X(q) W(high)/X(q)  e(spline)
   0      9    11.376     8.651    0.25E-04    0.12E-04    0.13E-07
   0      9    11.376    33.192    0.14E-03    0.18E-03    0.86E-07
   1      8    11.376     5.899    0.25E-04    0.48E-04    0.38E-07
   1      8    11.376    27.289    0.31E-03    0.36E-04    0.16E-06
   2      8    11.376     4.673    0.15E-03    0.22E-03    0.50E-07

 PAW_PBE Ba_sv 06Sep2000                :
 PAW_PBE Ge 05Jan2001                   :

 POSCAR: ba8 ge16
  positions in cartesian coordinates
 exchange correlation table for  LEXCH =       43
   RHO(1)=    0.500       N(1)  =     2000
   RHO(2)=  100.500       N(2)  =     4000

 ion  position               nearest neighbor table
   1  0.015  0.250  0.691-  24 3.40  18 3.40  13 3.45  10 3.45  16 3.45  11 3.45  21 3.60  17 3.63
                            17 3.63   5 4.41   5 4.41   7 4.42   4 4.71   4 4.71
   2  0.985  0.750  0.309-  23 3.40  17 3.40   9 3.45  14 3.45  12 3.45  15 3.45  22 3.60  18 3.63
                            18 3.63   6 4.41   6 4.41   8 4.42   3 4.71   3 4.71
   3  0.485  0.750  0.191-  22 3.40  20 3.40  12 3.45  15 3.45   9 3.45  14 3.45  23 3.60  19 3.63
                            19 3.63   7 4.41   7 4.41   5 4.42   2 4.71   2 4.71
   4  0.515  0.250  0.809-  21 3.40  19 3.40  16 3.45  11 3.45  13 3.45  10 3.45  24 3.60  20 3.63
                            20 3.63   8 4.41   8 4.41   6 4.42   1 4.71   1 4.71
   5  0.159  0.750  0.907-  10 3.46  13 3.46  21 3.48  21 3.48  11 3.50  16 3.50  22 3.54   9 3.55
                            14 3.55  17 3.71  20 3.82   1 4.41   1 4.41   3 4.42
   6  0.841  0.250  0.093-  14 3.46   9 3.46  22 3.48  22 3.48  15 3.50  12 3.50  21 3.54  13 3.55
                            10 3.55  18 3.71  19 3.82   2 4.41   2 4.41   4 4.42
   7  0.341  0.250  0.407-  15 3.46  12 3.46  23 3.48  23 3.48  14 3.50   9 3.50  24 3.54  16 3.55
                            11 3.55  19 3.71  18 3.82   3 4.41   3 4.41   1 4.42
   8  0.659  0.750  0.593-  11 3.46  16 3.46  24 3.48  24 3.48  10 3.50  13 3.50  23 3.54  12 3.55
                            15 3.55  20 3.71  17 3.82   4 4.41   4 4.41   2 4.42
   9  0.194  0.073  0.147-  14 2.41  21 2.41  19 2.42   2 3.45   3 3.45   6 3.46   7 3.50   5 3.55

  10  0.806  0.927  0.853-  13 2.41  22 2.41  20 2.42   1 3.45   4 3.45   5 3.46   8 3.50   6 3.55

[...]

  24  0.698  0.250  0.533-  15 2.41  12 2.41  18 2.45   1 3.40   8 3.48   8 3.48   7 3.54   4 3.60

  LATTYP: Found a simple orthorhombic cell.
 ALAT       =     6.7778496742
 B/A-ratio  =     1.3292516818
 C/A-ratio  =     1.7117734747

  Lattice vectors:

 A1 = (   0.0000000000,  -6.7778496742,   0.0000000000)
 A2 = (  -9.0094680786,   0.0000000000,   0.0000000000)
 A3 = (   0.0000000000,   0.0000000000, -11.6021432877)

Analysis of symmetry for initial positions (statically):
 Subroutine PRICEL returns:
 Original cell was already a primitive cell.

 Routine SETGRP: Setting up the symmetry group for a
 simple orthorhombic supercell.

 Subroutine GETGRP returns: Found  8 space group operations
 (whereof  2 operations were pure point group operations)
 out of a pool of  8 trial point group operations.

The static configuration has the point symmetry S_2 .
 The point group associated with its full space group is D_2h.

Analysis of symmetry for dynamics (positions and initial velocities):
 Subroutine PRICEL returns:
 Original cell was already a primitive cell.

 Routine SETGRP: Setting up the symmetry group for a
 simple orthorhombic supercell.

 Subroutine GETGRP returns: Found  8 space group operations
 (whereof  2 operations were pure point group operations)
 out of a pool of  8 trial point group operations.

The dynamic configuration has the point symmetry S_2 .
 The point group associated with its full space group is D_2h.

 Subroutine INISYM returns: Found  8 space group operations
 (whereof  2 operations are pure point group operations),
 and found     1 'primitive' translations

 KPOINTS: k-density: 6.0

Automatic generation of k-mesh.
Space group operators:
 irot       det(A)        alpha          n_x          n_y          n_z        tau_x        tau_y        tau_z
    1     1.000000     0.000000     1.000000     0.000000     0.000000     0.000000     0.000000     0.000000
    2    -1.000000     0.000000     1.000000     0.000000     0.000000     0.000000     0.000000     0.000000
    3     1.000000   180.000000     0.000000     0.000000     1.000000    -0.500000     0.000000    -0.500000
    4    -1.000000   180.000000     0.000000     0.000000     1.000000    -0.500000     0.000000    -0.500000
    5     1.000000   180.000000     1.000000     0.000000     0.000000    -0.500000    -0.500000    -0.500000
    6    -1.000000   180.000000     1.000000     0.000000     0.000000    -0.500000    -0.500000    -0.500000
    7     1.000000   180.000000     0.000000     1.000000     0.000000    -0.000000    -0.500000    -0.000000
    8    -1.000000   180.000000     0.000000     1.000000     0.000000     0.000000    -0.500000     0.000000

 Subroutine IBZKPT returns following result:

 Found     36 irreducible k-points:

 Following reciprocal coordinates:
            Coordinates               Weight
  0.000000  0.000000  0.000000      1.000000
  0.200000  0.000000  0.000000      2.000000
  0.400000  0.000000  0.000000      2.000000
  0.000000  0.166667  0.000000      2.000000
  0.200000  0.166667  0.000000      4.000000
  0.400000  0.166667  0.000000      4.000000
  0.000000  0.333333  0.000000      2.000000
  0.200000  0.333333  0.000000      4.000000
  0.400000  0.333333  0.000000      4.000000
  0.000000  0.500000  0.000000      1.000000
  0.200000  0.500000  0.000000      2.000000
  0.400000  0.500000  0.000000      2.000000
  0.000000  0.000000  0.250000      2.000000
  0.200000  0.000000  0.250000      4.000000
  0.400000  0.000000  0.250000      4.000000
  0.000000  0.166667  0.250000      4.000000
  0.200000  0.166667  0.250000      8.000000
  0.400000  0.166667  0.250000      8.000000
  0.000000  0.333333  0.250000      4.000000
  0.200000  0.333333  0.250000      8.000000
  0.400000  0.333333  0.250000      8.000000
  0.000000  0.500000  0.250000      2.000000
  0.200000  0.500000  0.250000      4.000000
  0.400000  0.500000  0.250000      4.000000
  0.000000  0.000000  0.500000      1.000000
  0.200000  0.000000  0.500000      2.000000
  0.400000  0.000000  0.500000      2.000000
  0.000000  0.166667  0.500000      2.000000
  0.200000  0.166667  0.500000      4.000000
  0.400000  0.166667  0.500000      4.000000
  0.000000  0.333333  0.500000      2.000000
  0.200000  0.333333  0.500000      4.000000
  0.400000  0.333333  0.500000      4.000000
  0.000000  0.500000  0.500000      1.000000
  0.200000  0.500000  0.500000      2.000000
  0.400000  0.500000  0.500000      2.000000

 Following cartesian coordinates:
            Coordinates               Weight
  0.000000  0.000000  0.000000      1.000000
  0.022199  0.000000  0.000000      2.000000
  0.044398  0.000000  0.000000      2.000000
  0.000000  0.024590  0.000000      2.000000
  0.022199  0.024590  0.000000      4.000000
  0.044398  0.024590  0.000000      4.000000
  0.000000  0.049180  0.000000      2.000000
  0.022199  0.049180  0.000000      4.000000
  0.044398  0.049180  0.000000      4.000000
  0.000000  0.073770  0.000000      1.000000
  0.022199  0.073770  0.000000      2.000000
  0.044398  0.073770  0.000000      2.000000
  0.000000  0.000000  0.021548      2.000000
  0.022199  0.000000  0.021548      4.000000
  0.044398  0.000000  0.021548      4.000000
  0.000000  0.024590  0.021548      4.000000
  0.022199  0.024590  0.021548      8.000000
  0.044398  0.024590  0.021548      8.000000
  0.000000  0.049180  0.021548      4.000000
  0.022199  0.049180  0.021548      8.000000
  0.044398  0.049180  0.021548      8.000000
  0.000000  0.073770  0.021548      2.000000
  0.022199  0.073770  0.021548      4.000000
  0.044398  0.073770  0.021548      4.000000
  0.000000  0.000000  0.043095      1.000000
  0.022199  0.000000  0.043095      2.000000
  0.044398  0.000000  0.043095      2.000000
  0.000000  0.024590  0.043095      2.000000
  0.022199  0.024590  0.043095      4.000000
  0.044398  0.024590  0.043095      4.000000
  0.000000  0.049180  0.043095      2.000000
  0.022199  0.049180  0.043095      4.000000
  0.044398  0.049180  0.043095      4.000000
  0.000000  0.073770  0.043095      1.000000
  0.022199  0.073770  0.043095      2.000000
  0.044398  0.073770  0.043095      2.000000

 TETIRR: Found    360 inequivalent tetrahedra from      720

 SYSTEM =  unknown system
 POSCAR =  ba8 ge16

 Startparameter for this run:
   NWRITE =      2    write-flag & timer
   PREC   = normal    normal or accurate (medium, high low for compatibility)
   ISTART =      0    job   : 0-new  1-cont  2-samecut
   ICHARG =      2    charge: 1-file 2-atom 10-const
   ISPIN  =      1    spin polarized calculation?
   LNONCOLLINEAR =      F non collinear calculations
   LSORBIT =      F    spin-orbit coupling
[...]
 d Force =-0.5834007E+00[-0.585E+00,-0.581E+00]  d Ewald  = 0.1757628E+01-0.234E+01

[...]

 d Force =-0.1735357E-02[-0.177E-02,-0.170E-02]  d Energy = 0.4890648E-04-0.178E-02
 d Force =-0.2039679E+00[-0.204E+00,-0.204E+00]  d Ewald  = 0.6109447E+00-0.815E+00

[...]

 d Force = 0.4613951E-01[ 0.370E-01, 0.553E-01]  d Energy = 0.1199498E+00-0.738E-01
 d Force = 0.5572168E+01[ 0.543E+01, 0.572E+01]  d Ewald  = 0.5255308E+02-0.470E+02

 Conjugate gradient step on ions:
 trial-energy change:   -0.119950  1 .order   -0.118908   -0.156833   -0.080984
  (g-gl).g = 0.181E+00      g.g   = 0.175E+00  gl.gl    = 0.945E+01
 g(Force)  = 0.511E-01   g(Stress)= 0.124E+00 ortho     =-0.667E-02
 gamma     =   0.01919
 trial     =   0.89879
 opt step  =   1.72726  (harmonic =   1.85843) maximal distance =0.02744375
 next E    =   -85.581844   (d E  =  -0.15809)

[...]

 d Force = 0.3955495E-02[-0.259E-02, 0.105E-01]  d Energy = 0.5239368E-02-0.128E-02
 d Force = 0.2330949E+01[ 0.229E+01, 0.237E+01]  d Ewald  =-0.3542177E+01 0.587E+01

[...]

 d Force = 0.2517613E-03[ 0.122E-04, 0.491E-03]  d Energy = 0.2695208E-03-0.178E-04
 d Force =-0.4355487E+00[-0.437E+00,-0.434E+00]  d Ewald  = 0.6781780E+00-0.111E+01

[...]

 d Force = 0.1762753E-02[ 0.142E-02, 0.211E-02]  d Energy = 0.2020383E-02-0.258E-03
 d Force =-0.2317675E+00[-0.235E+00,-0.229E+00]  d Ewald  =-0.5487288E-01-0.177E+00

 Conjugate gradient step on ions:
 trial-energy change:   -0.002020  1 .order   -0.002046   -0.002484   -0.001608
  (g-gl).g = 0.192E-02      g.g   = 0.237E-02  gl.gl    = 0.129E-01
 g(Force)  = 0.204E-02   g(Stress)= 0.322E-03 ortho     = 0.215E-03
 gamma     =   0.14883
 trial     =   1.03578
 opt step  =   2.93696  (harmonic =   2.93696) maximal distance =0.00856468
 next E    =   -85.593026   (d E  =  -0.00352)

[...]

 d Force = 0.4603084E-03[ 0.285E-03, 0.636E-03]  d Energy = 0.5243037E-03-0.640E-04
 d Force = 0.7789634E-01[ 0.767E-01, 0.791E-01]  d Ewald  =-0.6260467E+00 0.704E+00

[...]

 d Force = 0.9580572E-04[ 0.720E-04, 0.120E-03]  d Energy = 0.4311679E-04 0.527E-04
 d Force = 0.3196645E-01[ 0.317E-01, 0.322E-01]  d Ewald  =-0.2639611E+00 0.296E+00

[...]

 d Force = 0.1363581E-04[ 0.437E-05, 0.229E-04]  d Energy = 0.2110193E-04-0.747E-05
 d Force = 0.4019472E-01[ 0.401E-01, 0.403E-01]  d Ewald  = 0.3922394E+00-0.352E+00

[...]

 d Force =-0.4878328E-05[-0.696E-05,-0.280E-05]  d Energy = 0.1327167E-04-0.181E-04
 d Force = 0.2395134E-01[ 0.239E-01, 0.240E-01]  d Ewald  = 0.1544479E+00-0.130E+00

[...]

 d Force =-0.5677170E-05[-0.787E-05,-0.349E-05]  d Energy = 0.2604190E-05-0.828E-05
 d Force = 0.1197693E-01[ 0.120E-01, 0.120E-01]  d Ewald  = 0.7732830E-01-0.654E-01

[...]

 d Force = 0.5612104E-04[-0.153E-05, 0.114E-03]  d Energy = 0.8849360E-04-0.324E-04
 d Force =-0.2062811E+00[-0.207E+00,-0.206E+00]  d Ewald  =-0.3063920E-01-0.176E+00

 Conjugate gradient step on ions:
 trial-energy change:   -0.000088  1 .order   -0.000084   -0.000142   -0.000025
  (g-gl).g = 0.601E-04      g.g   = 0.750E-04  gl.gl    = 0.313E-03
 g(Force)  = 0.520E-04   g(Stress)= 0.230E-04 ortho     = 0.145E-04
 gamma     =   0.19176
 trial     =   1.82132
 opt step  =   2.12724  (harmonic =   2.21897) maximal distance =0.00145217
 next E    =   -85.594574   (d E  =  -0.00009)

[...]

 d Force =-0.2124480E-05[-0.399E-05,-0.256E-06]  d Energy = 0.1071829E-05-0.320E-05
 d Force =-0.3472486E-01[-0.347E-01,-0.347E-01]  d Ewald  =-0.5224926E-02-0.295E-01

 real space projection operators:
  max/ min on nodes  :       1427.50       1325.95

[...]

 eigenvalue-minimisations  :  6416
 total energy-change (2. order) :-0.6772365E-04  (-0.3554621E-03)
 number of electron     144.0000010 magnetization
 augmentation part      -24.6195283 magnetization

[...]

 Broyden mixing:
  rms(total) = 0.33603E-03    rms(broyden)= 0.33602E-03
  rms(prec ) = 0.45525E-03
  weight for this iteration     100.00

 eigenvalues of (default mixing * dielectric matrix)
  average eigenvalue GAMMA=   1.5593
  0.9993  2.1193

[...]

--------------------------------------- Iteration     24(   4)  ---------------------------------------

 BZINTS: Fermi energy:  2.837535;144.000000 electrons
         Band energy:-998.845014;  BLOECHL correction:  0.000000

 eigenvalue-minimisations  :  4248
 total energy-change (2. order) : 0.5582597E-06  (-0.2021742E-06)
 number of electron     144.0000010 magnetization
 augmentation part      -24.6199940 magnetization

 Free energy of the ion-electron system (eV)
  alpha Z        PSCENC =       571.07019491
  Ewald energy   TEWEN  =     -6386.71181553
  -Hartree energ DENC   =      -897.54837523
  -exchange      EXHF   =         0.00000000
  -V(xc)+E(xc)   XCENC  =        79.25100840
  PAW double counting   =      4075.78454961    -3835.03926807
  entropy T*S    EENTRO =         0.00000000
  eigenvalues    EBANDS =      -998.84501380
  atomic energy  EATOM  =      7306.44410201
  Solvation  Ediel_sol  =         0.00000000
  free energy    TOTEN  =       -85.59461770 eV

  energy without entropy =      -85.59461770  energy(sigma->0) =      -85.59461770

 average (electrostatic) potential at core
  the test charge radii are     1.2192  1.1631
  (the norm of the test charge is              1.0000)
       1 -37.0994       2 -37.0994       3 -37.0994       4 -37.0994       5 -37.1538
       6 -37.1538       7 -37.1538       8 -37.1538       9 -33.2816      10 -33.2816
      11 -33.2816      12 -33.2816      13 -33.2816      14 -33.2816      15 -33.2816
      16 -33.2816      17 -33.3270      18 -33.3270      19 -33.3270      20 -33.3270
      21 -33.1943      22 -33.1943      23 -33.1942      24 -33.1942

 E-fermi :   2.8375     XC(G=0):  -8.9366     alpha+bet : -9.3288

[...]

 k-point    36 :       0.4000    0.5000    0.5000
  band No.  band energies     occupation
      1     -25.0265      2.00000
      2     -25.0265      2.00000
      3     -25.0265      2.00000
      4     -25.0265      2.00000
      5     -25.0001      2.00000
      6     -25.0001      2.00000
      7     -24.9980      2.00000
      8     -24.9979      2.00000
      9     -10.6119      2.00000
     10     -10.6119      2.00000
     11     -10.5885      2.00000
     12     -10.5885      2.00000
     13     -10.5417      2.00000
     14     -10.5417      2.00000
     15     -10.5232      2.00000
     16     -10.5232      2.00000
     17     -10.4184      2.00000
     18     -10.4184      2.00000
     19     -10.3635      2.00000
     20     -10.3635      2.00000
     21     -10.3158      2.00000
     22     -10.3158      2.00000
     23     -10.3150      2.00000
     24     -10.3150      2.00000
     25     -10.2724      2.00000
     26     -10.2724      2.00000
     27     -10.2574      2.00000
     28     -10.2574      2.00000
     29     -10.2431      2.00000
     30     -10.2430      2.00000
     31     -10.2405      2.00000
     32     -10.2405      2.00000
     33      -7.9027      2.00000
     34      -7.9027      2.00000
     35      -7.9021      2.00000
     36      -7.9021      2.00000
     37      -4.2945      2.00000
     38      -4.2945      2.00000
     39      -4.1901      2.00000
     40      -4.1901      2.00000
     41      -3.9634      2.00000
     42      -3.9634      2.00000
     43      -3.9306      2.00000
     44      -3.9306      2.00000
     45      -3.7668      2.00000
     46      -3.7668      2.00000
     47      -3.6968      2.00000
     48      -3.6968      2.00000
     49       0.2592      2.00000
     50       0.2592      2.00000
     51       0.3583      2.00000
     52       0.3583      2.00000
     53       0.7223      2.00000
     54       0.7223      2.00000
     55       0.8454      2.00000
     56       0.8454      2.00000
     57       1.1002      2.00000
     58       1.1002      2.00000
     59       1.2499      2.00000
     60       1.2499      2.00000
[...]
     74       3.3282      0.00000
     75       3.5035      0.00000
     76       3.5035      0.00000
     77       3.6699      0.00000
     78       3.6699      0.00000
     79       3.8993      0.00000
     80       3.8993      0.00000
     81       4.4492      0.00000
     82       4.4492      0.00000
     83       4.5612      0.00000
     84       4.5612      0.00000
     85       4.8944      0.00000
     86       4.8944      0.00000
     87       4.9355      0.00000
     88       4.9355      0.00000

 soft charge-density along one line, spin component           1
         0         1         2         3         4         5         6         7         8         9
 total charge-density along one line

------------------------ aborting loop because EDIFF is reached ----------------------------------------

  FORCE on cell =-STRESS in cart. coord.  units (eV):
  Direction    XX          YY          ZZ          XY          YZ          ZX
  Alpha Z   571.07019   571.07019   571.07019
  Ewald   -2139.03136 -2126.81219 -2120.88642    -0.00000    -0.00000    -0.00012
  Hartree   291.92733   303.66012   301.95456     0.00000    -0.00000     0.00001
  E(xc)    -484.51153  -484.20874  -484.20578    -0.00000    -0.00000    -0.00000
  Local     204.15702   185.92696   183.01990     0.00000    -0.00000     0.00007
  n-local     8.26413     6.10853     6.60018    -0.17305    -0.04528    -0.05341
  augment   -48.57059   -48.03983   -48.09888    -0.00000    -0.00000    -0.00000
  Kinetic  1596.74605  1592.31639  1590.59444     0.77037    -0.99763     0.12882
  Fock        0.00000     0.00000     0.00000     0.00000     0.00000     0.00000
  Total       0.05124     0.02143     0.04820    -0.00000     0.00000     0.00000
  in kB       0.11365     0.04753     0.10690    -0.00000     0.00000     0.00000

 VOLUME and BASIS-vectors are now :
  energy-cutoff  :      500.00
  volume of cell :      722.39
      direct lattice vectors                 reciprocal lattice vectors
     9.091647024  0.000000000  0.000000000     0.109991072 -0.000000000  0.000000000
     0.000000000  6.832072653  0.000000000    -0.000000000  0.146368467  0.000000000
     0.000000000  0.000000000 11.629878346     0.000000000  0.000000000  0.085985422

  length of vectors
     9.091647024  6.832072653 11.629878346     0.109991072  0.146368467  0.085985422

 FORCES acting on ions
    electron-ion (+dipol)            ewald-force                    non-local-force                 convergence-correction
   0.245E+01 0.814E-04 0.709E+01   -.273E+01 0.138E-04 -.747E+01   0.280E+00 0.107E-17 0.384E+00   0.439E-03 0.500E-10 0.159E-03
   -.245E+01 0.651E-05 -.709E+01   0.273E+01 -.193E-04 0.747E+01   -.280E+00 0.879E-18 -.384E+00   -.439E-03 -.554E-10 -.159E-03
   -.245E+01 0.263E-05 0.709E+01   0.273E+01 -.193E-04 -.747E+01   -.280E+00 0.145E-17 0.384E+00   -.439E-03 -.514E-09 0.159E-03
   0.245E+01 0.775E-04 -.709E+01   -.273E+01 0.138E-04 0.747E+01   0.280E+00 0.136E-17 -.384E+00   0.439E-03 -.408E-09 -.159E-03
   -.207E+02 0.487E-05 -.474E+01   0.198E+02 -.175E-04 0.476E+01   0.846E+00 0.126E-17 -.212E-01   -.151E-03 -.846E-09 -.238E-03
   0.207E+02 0.792E-04 0.474E+01   -.198E+02 0.167E-04 -.476E+01   -.846E+00 -.118E-17 0.212E-01   0.151E-03 0.249E-09 0.238E-03
   0.207E+02 0.788E-04 -.474E+01   -.198E+02 0.167E-04 0.476E+01   -.846E+00 0.229E-17 -.212E-01   0.151E-03 -.806E-10 -.238E-03
   -.207E+02 0.452E-05 0.474E+01   0.198E+02 -.175E-04 -.476E+01   0.846E+00 0.215E-17 0.212E-01   -.151E-03 -.118E-08 0.238E-03
   0.584E+01 0.189E+02 -.105E+02   -.644E+01 -.204E+02 0.114E+02   0.590E+00 0.147E+01 -.820E+00   0.335E-04 0.957E-04 0.212E-03
   -.584E+01 -.189E+02 0.105E+02   0.644E+01 0.204E+02 -.114E+02   -.590E+00 -.147E+01 0.820E+00   -.335E-04 -.957E-04 -.212E-03
   -.584E+01 -.189E+02 -.105E+02   0.644E+01 0.204E+02 0.114E+02   -.590E+00 -.147E+01 -.820E+00   -.335E-04 -.957E-04 0.212E-03
   0.584E+01 0.189E+02 0.105E+02   -.644E+01 -.204E+02 -.114E+02   0.590E+00 0.147E+01 0.820E+00   0.335E-04 0.957E-04 -.212E-03
   -.584E+01 0.189E+02 0.105E+02   0.644E+01 -.204E+02 -.114E+02   -.590E+00 0.147E+01 0.820E+00   -.335E-04 0.957E-04 -.212E-03
   0.584E+01 -.189E+02 -.105E+02   -.644E+01 0.204E+02 0.114E+02   0.590E+00 -.147E+01 -.820E+00   0.335E-04 -.957E-04 0.212E-03
   0.584E+01 -.189E+02 0.105E+02   -.644E+01 0.204E+02 -.114E+02   0.590E+00 -.147E+01 0.820E+00   0.335E-04 -.957E-04 -.212E-03
   -.584E+01 0.189E+02 -.105E+02   0.644E+01 -.204E+02 0.114E+02   -.590E+00 0.147E+01 -.820E+00   -.335E-04 0.957E-04 0.212E-03
   0.302E+02 -.103E-04 0.203E+01   -.321E+02 -.795E-05 -.240E+01   0.185E+01 -.226E-17 0.380E+00   -.587E-04 0.477E-09 0.341E-03
   -.302E+02 0.457E-05 -.203E+01   0.321E+02 0.806E-05 0.240E+01   -.185E+01 0.258E-17 -.380E+00   0.587E-04 0.276E-09 -.341E-03
   -.302E+02 0.106E-04 0.203E+01   0.321E+02 0.806E-05 -.240E+01   -.185E+01 -.417E-17 0.380E+00   0.587E-04 0.543E-10 0.341E-03
   0.302E+02 -.421E-05 -.203E+01   -.321E+02 -.795E-05 0.240E+01   0.185E+01 -.341E-17 -.380E+00   -.587E-04 0.254E-09 -.341E-03
   0.280E+01 0.117E-05 0.213E+02   -.313E+01 0.859E-05 -.231E+02   0.334E+00 -.796E-18 0.176E+01   -.913E-04 0.171E-09 0.723E-04
   -.280E+01 -.134E-04 -.213E+02   0.313E+01 -.914E-05 0.231E+02   -.334E+00 0.529E-18 -.176E+01   0.913E-04 -.540E-10 -.723E-04
   -.280E+01 -.505E-06 0.213E+02   0.313E+01 -.914E-05 -.231E+02   -.334E+00 0.146E-17 0.176E+01   0.913E-04 -.267E-09 0.723E-04
   0.280E+01 0.141E-04 -.213E+02   -.313E+01 0.859E-05 0.231E+02   0.334E+00 -.151E-17 -.176E+01   -.913E-04 -.422E-10 -.723E-04
   -.316E-03 0.459E-03 0.116E-03   0.488E-14 0.262E-13 0.391E-13   -.278E-15 -.757E-17 0.222E-15   0.293E-09 -.159E-08 -.217E-08

 POSITION                                       TOTAL-FORCE (eV/Angst)
      0.14336      1.70802      8.02947         0.001700     -0.000000     -0.003579
      8.94828      5.12405      3.60041        -0.001700     -0.000000      0.003579
      4.40246      5.12405      2.21453        -0.001700     -0.000000     -0.003579
      4.68919      1.70802      9.41535         0.001700     -0.000000      0.003579
      1.43229      5.12405     10.54725         0.000630     -0.000000     -0.002767
      7.65936      1.70802      1.08263        -0.000630     -0.000000      0.002767
      3.11354      1.70802      4.73231        -0.000630     -0.000000     -0.002767
      5.97811      5.12405      6.89757         0.000630     -0.000000      0.002767
      1.73124      0.41135      1.74658        -0.005996     -0.003760      0.002195
      7.36040      6.42072      9.88330         0.005996      0.003760     -0.002195
      2.81458      6.42072      7.56152         0.005996      0.003760      0.002195
      6.27707      0.41135      4.06836        -0.005996     -0.003760     -0.002195
      7.36040      3.82739      9.88330         0.005996     -0.003760     -0.002195
      1.73124      3.00468      1.74658        -0.005996      0.003760      0.002195
      6.27707      3.00468      4.06836        -0.005996      0.003760     -0.002195
      2.81458      3.82739      7.56152         0.005996     -0.003760      0.002195
      0.65415      5.12405      6.91025        -0.006149     -0.000000      0.006786
      8.43750      1.70802      4.71963         0.006149     -0.000000     -0.006786
      3.89167      1.70802      1.09531         0.006149     -0.000000      0.006786
      5.19997      5.12405     10.53457        -0.006149     -0.000000     -0.006786
      1.75601      1.70802     11.13417        -0.001177     -0.000000     -0.002364
      7.33564      5.12405      0.49571         0.001177     -0.000000      0.002364
      2.78981      5.12405      5.31923         0.001177     -0.000000     -0.002364
      6.30183      1.70802      6.31065        -0.001177     -0.000000      0.002364
    total drift:                               -0.000316      0.000459      0.000116

  FREE ENERGIE OF THE ION-ELECTRON SYSTEM (eV)
  free  energy   TOTEN  =       -85.59461770 eV

  energy  without entropy=      -85.59461770  energy(sigma->0) =      -85.59461770

 d Force = 0.2721670E-04[ 0.236E-04, 0.308E-04]  d Energy = 0.4443425E-04-0.172E-04
 d Force =-0.3489070E-02[-0.354E-02,-0.344E-02]  d Ewald  =-0.2768244E+00 0.273E+00

 Conjugate gradient step on ions:
 trial-energy change:   -0.000044  1 .order   -0.000046   -0.000060   -0.000033
  (g-gl).g = 0.120E-03      g.g   = 0.122E-03  gl.gl    = 0.750E-04
 g(Force)  = 0.832E-04   g(Stress)= 0.385E-04 ortho     =-0.214E-06
 gamma     =   1.59459
 trial     =   0.49368
 opt step  =   1.09723  (harmonic =   1.09723) maximal distance =0.00088021
 next E    =   -85.594640   (d E  =  -0.00007)

 reached required accuracy - stopping structural energy minimisation
 writing wavefunctions
 BZINTS: Fermi energy:  2.837535;144.000000 electrons
         Band energy:-998.845014;  BLOECHL correction:  0.000000