 vasp.5.4.4.18Apr17-6-g9f103f2a35 (build Nov 21 2017 15:30:27) complex

 executed on             LinuxIFC date 2020.08.19  00:27:52

 INCAR:
 POTCAR:   PAW_PBE Ba_sv 06Sep2000
 POTCAR:   PAW_PBE Ge 05Jan2001

 POTCAR:   PAW_PBE Ba_sv 06Sep2000
   VRHFIN =Ba: 5s5p6s

   TITEL  = PAW_PBE Ba_sv 06Sep2000
   POMASS =  137.327; ZVAL   =   10.000    mass and valenz
   ENMAX  =  187.210; ENMIN  =  140.408 eV
   QCUT   =   -3.709; QGAM   =    7.419    optimization parameters

   Description
     l     E      TYP  RCUT    TYP  RCUT
     0   .000     23  2.800
     0   .000     23  2.800
     1   .000     23  2.700
     1  2.000     23  2.700
     2   .000     23  2.700
     2   .000     23  2.700

 POTCAR:   PAW_PBE Ge 05Jan2001
   VRHFIN =Ge: s2p2

   TITEL  = PAW_PBE Ge 05Jan2001
   POMASS =   72.610; ZVAL   =    4.000    mass and valenz
   ENMAX  =  173.807; ENMIN  =  130.355 eV
   QCUT   =   -3.574; QGAM   =    7.148    optimization parameters

   Description
     l     E      TYP  RCUT    TYP  RCUT
     0   .000     23  2.300
     0   .000     23  2.300
     1   .000     23  2.300
     1   .000     23  2.300
     2   .000     23  2.300
     3  -.100      7  2.300

 Optimization of the real space projectors (new method)

 maximal supplied QI-value         = 13.42
 optimisation between [QCUT,QGAM] = [ 11.40, 22.81] = [ 36.42,145.68] Ry
 Optimized for a Real-space Cutoff    1.56 Angstroem

   l    n(q)    QCUT    max X(q) W(low)/X(q) W(high)/X(q)  e(spline)
   0     11    11.404     7.198    0.14E-04    0.26E-04    0.99E-07
   0     11    11.404    15.603    0.29E-04    0.72E-04    0.44E-06
   1     10    11.404     3.746    0.20E-04    0.24E-04    0.43E-07
   1     10    11.404     4.362    0.22E-03    0.97E-04    0.22E-06
   2     10    11.404     5.782    0.83E-04    0.62E-05    0.27E-06
   2     10    11.404    65.505    0.42E-03    0.31E-04    0.12E-05
 Optimization of the real space projectors (new method)

 maximal supplied QI-value         = 16.25
 optimisation between [QCUT,QGAM] = [ 11.38, 22.75] = [ 36.24,144.96] Ry
 Optimized for a Real-space Cutoff    1.27 Angstroem

   l    n(q)    QCUT    max X(q) W(low)/X(q) W(high)/X(q)  e(spline)
   0      9    11.376     8.651    0.25E-04    0.12E-04    0.13E-07
   0      9    11.376    33.192    0.14E-03    0.18E-03    0.86E-07
   1      8    11.376     5.899    0.25E-04    0.48E-04    0.38E-07
   1      8    11.376    27.289    0.31E-03    0.36E-04    0.16E-06
   2      8    11.376     4.673    0.15E-03    0.22E-03    0.50E-07
 PAW_PBE Ba_sv 06Sep2000                :
 PAW_PBE Ge 05Jan2001                   :

 POSCAR: ba8 ge16
  positions in direct lattice
  velocities in cartesian coordinates
 exchange correlation table for  LEXCH =        8
   RHO(1)=    0.500       N(1)  =     2000
   RHO(2)=  100.500       N(2)  =     4000

 ion  position               nearest neighbor table
   1  0.015  0.250  0.692-  13 3.37  10 3.37  24 3.40  18 3.41  16 3.44  11 3.44  21 3.51  17 3.64
                            17 3.64   5 4.43   5 4.43   7 4.45   4 4.74   4 4.74
   2  0.985  0.750  0.308-   9 3.37  14 3.37  23 3.40  17 3.41  12 3.44  15 3.44  22 3.51  18 3.64
                            18 3.64   6 4.43   6 4.43   8 4.45   3 4.74   3 4.74
   3  0.485  0.750  0.192-  12 3.37  15 3.37  22 3.40  20 3.41   9 3.44  14 3.44  23 3.51  19 3.64
                            19 3.64   7 4.43   7 4.43   5 4.45   2 4.74   2 4.74
   4  0.515  0.250  0.808-  16 3.37  11 3.37  21 3.40  19 3.41  13 3.44  10 3.44  24 3.51  20 3.64
                            20 3.64   8 4.43   8 4.43   6 4.45   1 4.74   1 4.74
   5  0.158  0.750  0.907-  21 3.48  21 3.48  10 3.49  13 3.49  11 3.53  16 3.53   9 3.56  14 3.56
                            22 3.57  17 3.75  20 3.76   1 4.43   1 4.43   3 4.45
   6  0.842  0.250  0.093-  22 3.48  22 3.48  14 3.49   9 3.49  15 3.53  12 3.53  13 3.56  10 3.56
                            21 3.57  18 3.75  19 3.76   2 4.43   2 4.43   4 4.45
   7  0.342  0.250  0.407-  23 3.48  23 3.48  15 3.49  12 3.49  14 3.53   9 3.53  16 3.56  11 3.56
                            24 3.57  19 3.75  18 3.76   3 4.43   3 4.43   1 4.45
   8  0.658  0.750  0.593-  24 3.48  24 3.48  11 3.49  16 3.49  10 3.53  13 3.53  12 3.56  15 3.56
                            23 3.57  20 3.75  17 3.76   4 4.43   4 4.43   2 4.45
   9  0.191  0.060  0.151-  14 2.59  21 2.59  19 2.60   2 3.37   3 3.44   6 3.49   7 3.53   5 3.56

  10  0.809  0.940  0.849-  13 2.59  22 2.59  20 2.60   1 3.37   4 3.44   5 3.49   8 3.53   6 3.56

[...]

  24  0.694  0.250  0.542-  15 2.59  12 2.59  18 2.64   1 3.40   8 3.48   8 3.48   4 3.51   7 3.57

  LATTYP: Found a simple orthorhombic cell.
 ALAT       =     6.8154852786
 B/A-ratio  =     1.3324245635
 C/A-ratio  =     1.7114277484

  Lattice vectors:

 A1 = (   0.0000000000,  -6.8154852786,   0.0000000000)
 A2 = (  -9.0811199975,   0.0000000000,   0.0000000000)
 A3 = (   0.0000000000,   0.0000000000, -11.6642106246)

Analysis of symmetry for initial positions (statically):
 Subroutine PRICEL returns:
 Original cell was already a primitive cell.

 Routine SETGRP: Setting up the symmetry group for a
 simple orthorhombic supercell.

 Subroutine GETGRP returns: Found  8 space group operations
 (whereof  2 operations were pure point group operations)
 out of a pool of  8 trial point group operations.

The static configuration has the point symmetry S_2 .
 The point group associated with its full space group is D_2h.

Analysis of symmetry for dynamics (positions and initial velocities):
 Subroutine PRICEL returns:
 Original cell was already a primitive cell.

 Routine SETGRP: Setting up the symmetry group for a
 simple orthorhombic supercell.

 Subroutine GETGRP returns: Found  8 space group operations
 (whereof  2 operations were pure point group operations)
 out of a pool of  8 trial point group operations.

The dynamic configuration has the point symmetry S_2 .
 The point group associated with its full space group is D_2h.

 Subroutine INISYM returns: Found  8 space group operations
 (whereof  2 operations are pure point group operations),
 and found     1 'primitive' translations

 KPOINTS: Automatically generated mesh
  k-points in reciprocal lattice
Space group operators:
 irot       det(A)        alpha          n_x          n_y          n_z        tau_x        tau_y        tau_z
    1     1.000000     0.000000     1.000000     0.000000     0.000000     0.000000     0.000000     0.000000
    2    -1.000000     0.000000     1.000000     0.000000     0.000000     0.000000     0.000000     0.000000
    3     1.000000   179.999999     0.000000     0.000000     1.000000    -0.500000     0.000000    -0.500000
    4    -1.000000   179.999999     0.000000     0.000000     1.000000    -0.500000     0.000000    -0.500000
    5     1.000000   179.999999     1.000000     0.000000     0.000000    -0.500000    -0.500000    -0.500000
    6    -1.000000   179.999999     1.000000     0.000000     0.000000    -0.500000    -0.500000    -0.500000
    7     1.000000   180.000000     0.000000     1.000000     0.000000    -0.000000    -0.500000    -0.000000
    8    -1.000000   180.000000     0.000000     1.000000     0.000000     0.000000    -0.500000     0.000000

 Subroutine IBZKPT_HF returns following result:

 Found     30 k-points in 1st BZ
 the following     30 k-points will be used (e.g. in the exchange kernel)
 Following reciprocal coordinates:   # in IRBZ
  0.000000  0.000000  0.000000    0.03333333   1 t-inv F
  0.166667  0.000000  0.000000    0.03333333   2 t-inv F
  0.333333  0.000000  0.000000    0.03333333   3 t-inv F
  0.500000  0.000000  0.000000    0.03333333   4 t-inv F
  0.000000  0.125000  0.000000    0.03333333   5 t-inv F
  0.166667  0.125000  0.000000    0.03333333   6 t-inv F
  0.333333  0.125000  0.000000    0.03333333   7 t-inv F
  0.500000  0.125000  0.000000    0.03333333   8 t-inv F
  0.000000  0.250000  0.000000    0.03333333   9 t-inv F
  0.166667  0.250000  0.000000    0.03333333  10 t-inv F
  0.333333  0.250000  0.000000    0.03333333  11 t-inv F
  0.500000  0.250000  0.000000    0.03333333  12 t-inv F
 -0.166667  0.000000  0.000000    0.03333333   2 t-inv F
 -0.333333  0.000000  0.000000    0.03333333   3 t-inv F
  0.000000 -0.125000  0.000000    0.03333333   5 t-inv F
 -0.166667 -0.125000  0.000000    0.03333333   6 t-inv F
  0.166667 -0.125000  0.000000    0.03333333   6 t-inv F
 -0.166667  0.125000  0.000000    0.03333333   6 t-inv F
 -0.333333 -0.125000  0.000000    0.03333333   7 t-inv F
  0.333333 -0.125000  0.000000    0.03333333   7 t-inv F
 -0.333333  0.125000  0.000000    0.03333333   7 t-inv F
 -0.500000 -0.125000  0.000000    0.03333333   8 t-inv F
  0.000000 -0.250000  0.000000    0.03333333   9 t-inv F
 -0.166667 -0.250000  0.000000    0.03333333  10 t-inv F
  0.166667 -0.250000  0.000000    0.03333333  10 t-inv F
 -0.166667  0.250000  0.000000    0.03333333  10 t-inv F
 -0.333333 -0.250000  0.000000    0.03333333  11 t-inv F
  0.333333 -0.250000  0.000000    0.03333333  11 t-inv F
 -0.333333  0.250000  0.000000    0.03333333  11 t-inv F
 -0.500000 -0.250000  0.000000    0.03333333  12 t-inv F

 SYSTEM =  unknown system
 POSCAR =  ba8 ge16

 Startparameter for this run:
   NWRITE =      2    write-flag & timer
   PREC   = normal    normal or accurate (medium, high low for compatibility)
   ISTART =      1    job   : 0-new  1-cont  2-samecut
   ICHARG =      0    charge: 1-file 2-atom 10-const
   ISPIN  =      1    spin polarized calculation?
   LNONCOLLINEAR =      F non collinear calculations
   LSORBIT =      F    spin-orbit coupling
   INIWAV =      1    electr: 0-lowe 1-rand  2-diag
   LASPH  =      F    aspherical Exc in radial PAW
   METAGGA=      F    non-selfconsistent MetaGGA calc.

 Electronic Relaxation 1
   ENCUT  =  500.0 eV  36.75 Ry    6.06 a.u.  16.56 12.43 21.27*2*pi/ulx,y,z
   ENINI  =  500.0     initial cutoff
   ENAUG  =  385.8 eV  augmentation charge cutoff
   NELM   =    300;   NELMIN=  4; NELMDL=  0     # of ELM steps
   EDIFF  = 0.1E-05   stopping-criterion for ELM
   LREAL  =      T    real-space projection
   NLSPLINE    = F    spline interpolate recip. space projectors
   LCOMPAT=      F    compatible to vasp.4.4
   GGA_COMPAT  = T    GGA compatible to vasp.4.4-vasp.4.6
   LMAXPAW     = -100 max onsite density
   LMAXMIX     =    2 max onsite mixed and CHGCAR
   VOSKOWN=      0    Vosko Wilk Nusair interpolation
   ROPT   =   -0.00050  -0.00050
 Ionic relaxation
   EDIFFG = 0.1E-04   stopping-criterion for IOM
   NSW    =      0    number of steps for IOM
   NBLOCK =      1;   KBLOCK =      1    inner block; outer block
   IBRION =     -1    ionic relax: 0-MD 1-quasi-New 2-CG
   NFREE  =      0    steps in history (QN), initial steepest desc. (CG)
   ISIF   =      0    stress and relaxation
   IWAVPR =     10    prediction:  0-non 1-charg 2-wave 3-comb
   ISYM   =      3    0-nonsym 1-usesym 2-fastsym
   LCORR  =      T    Harris-Foulkes like correction to forces

   POTIM  = 0.5000    time-step for ionic-motion
   TEIN   =    0.0    initial temperature
   TEBEG  =    0.0;   TEEND  =   0.0 temperature during run
   SMASS  =  -3.00    Nose mass-parameter (am)
[...]
  gives a total of  35475 points

 charge density for first step will be calculated from the start-wavefunctions

 Maximum index for non-local projection operator          262
 Maximum index for augmentation-charges          586 (set IRDMAX)

 initial charge from wavefunction
 First call to EWALD:  gamma=   0.198
 Maximum number of real-space cells 3x 3x 2
 Maximum number of reciprocal cells 3x 2x 3

--------------------------------------- Iteration      1(   1)  ---------------------------------------

 eigenvalue-minimisations  :     0
 total energy-change (2. order) :-0.6305062E+02  (-0.3604758E+02)
 number of electron     144.0000005 magnetization
 augmentation part      -24.1614917 magnetization

 Free energy of the ion-electron system (eV)
  alpha Z        PSCENC =       571.43673610
  Ewald energy   TEWEN  =     -6387.87460875
  -Hartree energ DENC   =      -901.77498123
  -exchange      EXHF   =       231.05585218
  -V(xc)+E(xc)   XCENC  =        54.69128408
  PAW double counting   =      4101.34397701    -3904.01904569
  entropy T*S    EENTRO =        -0.00000000
  eigenvalues    EBANDS =     -1070.34140948
  atomic energy  EATOM  =      7242.43157640
  free energy    TOTEN  =       -63.05061939 eV

  energy without entropy =      -63.05061939  energy(sigma->0) =      -63.05061939
  exchange ACFDT corr.  =         0.00000000  see jH, gK, PRB 81, 115126

[...]

 eigenvalue-minimisations  :     0
 total energy-change (2. order) : 0.2542145E-05  (-0.3275453E-04)
 number of electron     144.0000005 magnetization
 augmentation part      -23.8881205 magnetization

[...]

 eigenvalue-minimisations  :     0
 total energy-change (2. order) : 0.1523551E-05  (-0.1595267E-03)
 number of electron     144.0000005 magnetization
 augmentation part      -23.8882959 magnetization

[...]

--------------------------------------- Iteration      1(  72)  ---------------------------------------

 eigenvalue-minimisations  :     0
 total energy-change (2. order) :-0.3008213E-06  (-0.8973562E-06)
 number of electron     144.0000005 magnetization
 augmentation part      -23.8883616 magnetization

 Free energy of the ion-electron system (eV)
  alpha Z        PSCENC =       571.43673610
  Ewald energy   TEWEN  =     -6387.87460875
  -Hartree energ DENC   =      -891.76794039
  -exchange      EXHF   =       237.04974494
  -V(xc)+E(xc)   XCENC  =        55.00332418
  PAW double counting   =      4077.13993263    -3880.39074010
  entropy T*S    EENTRO =        -0.00000000
  eigenvalues    EBANDS =     -1143.50754960
  atomic energy  EATOM  =      7242.43157640
  free energy    TOTEN  =      -120.47953152 eV

  energy without entropy =     -120.47953152  energy(sigma->0) =     -120.47953152
  exchange ACFDT corr.  =        -0.00000000  see jH, gK, PRB 81, 115126

  average scaling for gradient   0.6710

 average (electrostatic) potential at core
  the test charge radii are     1.2192  1.1631
  (the norm of the test charge is              1.0000)
       1 -33.6819       2 -33.6819       3 -33.6819       4 -33.6819       5 -33.8134
       6 -33.8134       7 -33.8134       8 -33.8134       9 -30.0993      10 -30.0993
      11 -30.0993      12 -30.0993      13 -30.0993      14 -30.0993      15 -30.0993
      16 -30.0993      17 -30.2480      18 -30.2480      19 -30.2480      20 -30.2480
      21 -30.1461      22 -30.1461      23 -30.1461      24 -30.1462

 E-fermi :   2.6303     XC(G=0):  -7.4287     alpha+bet : -9.3348

 k-point     1 :       0.0000    0.0000    0.0000
  band No.  band energies     occupation
      1     -27.3618      2.00000
      2     -27.3572      2.00000
      3     -27.3531      2.00000
      4     -27.3526      2.00000
      5     -27.2614      2.00000
      6     -27.2595      2.00000
      7     -27.2538      2.00000
      8     -27.2518      2.00000
      9     -11.9403      2.00000
     10     -11.9138      2.00000
     11     -11.8710      2.00000
     12     -11.8416      2.00000
     13     -11.7774      2.00000
     14     -11.7597      2.00000
     15     -11.7493      2.00000
     16     -11.7405      2.00000
     17     -11.7140      2.00000
     18     -11.7117      2.00000
     19     -11.7003      2.00000
     20     -11.6837      2.00000
     21     -11.6320      2.00000
     22     -11.5933      2.00000
     23     -11.5704      2.00000
     24     -11.5541      2.00000
     25     -11.5480      2.00000
     26     -11.5359      2.00000
     27     -11.5355      2.00000
     28     -11.5323      2.00000
     29     -11.5223      2.00000
     30     -11.5162      2.00000
     31     -11.4968      2.00000
     32     -11.4817      2.00000
     33      -9.6502      2.00000
     34      -9.2781      2.00000
     35      -9.1988      2.00000
     36      -9.1783      2.00000
     37      -5.2878      2.00000
     38      -5.2012      2.00000
     39      -4.9001      2.00000
     40      -4.8317      2.00000
     41      -4.7883      2.00000
     42      -4.7600      2.00000
     43      -4.7431      2.00000
     44      -4.7234      2.00000
     45      -4.5928      2.00000
     46      -4.5629      2.00000
     47      -4.5034      2.00000
     48      -4.3715      2.00000
     49      -1.2809      2.00000
     50      -0.3496      2.00000
     51      -0.1708      2.00000
     52      -0.0530      2.00000
     53       0.0776      2.00000
     54       0.1826      2.00000
     55       0.4908      2.00000
     56       0.5080      2.00000
     57       0.6507      2.00000
     58       0.6583      2.00000
     59       0.7048      2.00000
     60       0.7417      2.00000
[...]
     74       3.7737      0.00000
     75       4.2167      0.00000
     76       4.2623      0.00000
     77       4.3743      0.00000
     78       4.7906      0.00000
     79       4.8346      0.00000
     80       5.0267      0.00000
     81       5.0800      0.00000
     82       5.3262      0.00000
     83       5.4728      0.00000
     84       5.5083      0.00000
     85       5.5509      0.00000
     86       5.6612      0.00000
     87       6.0173      0.00000
     88       6.1712      0.00000

[...]

 k-point    12 :       0.5000    0.2500    0.0000
  band No.  band energies     occupation
      1     -27.3578      2.00000
      2     -27.3578      2.00000
      3     -27.3537      2.00000
      4     -27.3537      2.00000
      5     -27.2579      2.00000
      6     -27.2579      2.00000
      7     -27.2568      2.00000
      8     -27.2568      2.00000
      9     -11.9712      2.00000
     10     -11.9712      2.00000
     11     -11.8638      2.00000
     12     -11.8638      2.00000
     13     -11.7870      2.00000
     14     -11.7870      2.00000
     15     -11.7719      2.00000
     16     -11.7719      2.00000
     17     -11.6824      2.00000
     18     -11.6824      2.00000
     19     -11.6709      2.00000
     20     -11.6709      2.00000
     21     -11.6354      2.00000
     22     -11.6354      2.00000
     23     -11.5697      2.00000
     24     -11.5697      2.00000
     25     -11.5424      2.00000
     26     -11.5424      2.00000
     27     -11.5284      2.00000
     28     -11.5284      2.00000
     29     -11.5040      2.00000
     30     -11.5040      2.00000
     31     -11.4888      2.00000
     32     -11.4888      2.00000
     33      -9.2972      2.00000
     34      -9.2972      2.00000
     35      -9.1807      2.00000
     36      -9.1807      2.00000
     37      -5.0666      2.00000
     38      -5.0666      2.00000
     39      -5.0482      2.00000
     40      -5.0482      2.00000
     41      -4.8096      2.00000
     42      -4.8096      2.00000
     43      -4.7614      2.00000
     44      -4.7614      2.00000
     45      -4.6548      2.00000
     46      -4.6548      2.00000
     47      -4.6135      2.00000
     48      -4.6135      2.00000
     49      -0.3762      2.00000
     50      -0.3762      2.00000
     51       0.1498      2.00000
     52       0.1498      2.00000
     53       0.3804      2.00000
     54       0.3804      2.00000
     55       0.4978      2.00000
     56       0.4978      2.00000
     57       0.7499      2.00000
     58       0.7499      2.00000
     59       0.8384      2.00000
     60       0.8384      2.00000
[...]
     74       3.8045      0.00000
     75       4.0416      0.00000
     76       4.0416      0.00000
     77       4.2127      0.00000
     78       4.2128      0.00000
     79       4.5772      0.00000
     80       4.5773      0.00000
     81       4.7867      0.00000
     82       4.7890      0.00000
     83       4.8992      0.00000
     84       4.9041      0.00000
     85       5.4811      0.00000
     86       5.5131      0.00000
     87       5.7962      0.00000
     88       5.8963      0.00000

 soft charge-density along one line, spin component           1
         0         1         2         3         4         5         6         7         8         9
 total charge-density along one line

------------------------ aborting loop because EDIFF is reached ----------------------------------------

 total charge

# of ion       s       p       d       tot
    1        2.011   5.605   0.294   7.910
    2        2.011   5.605   0.294   7.910
    3        2.011   5.605   0.294   7.910
    4        2.011   5.605   0.294   7.910
    5        2.003   5.602   0.276   7.881
    6        2.003   5.602   0.276   7.881
    7        2.003   5.602   0.276   7.881
    8        2.003   5.602   0.276   7.881
    9        1.185   1.157   0.039   2.381
   10        1.185   1.157   0.039   2.381
   11        1.185   1.157   0.039   2.381
   12        1.185   1.157   0.039   2.381
   13        1.186   1.154   0.039   2.379
   14        1.186   1.154   0.039   2.379
   15        1.186   1.154   0.039   2.379
   16        1.186   1.154   0.039   2.379
   17        1.203   1.078   0.041   2.321
   18        1.203   1.078   0.041   2.321
   19        1.203   1.078   0.041   2.321
   20        1.203   1.078   0.041   2.321
   21        1.175   1.159   0.039   2.373
   22        1.175   1.159   0.039   2.373
   23        1.175   1.159   0.039   2.373
   24        1.175   1.159   0.039   2.373
tot         35.052  63.015   2.917 100.984

 VOLUME and BASIS-vectors are now :
  energy-cutoff  :      500.00
  volume of cell :      721.92
      direct lattice vectors                 reciprocal lattice vectors
     9.081119998  0.000000000  0.000000000     0.110118576  0.000000000  0.000000000
     0.000000000  6.815485279  0.000000000     0.000000000  0.146724695  0.000000000
     0.000000000  0.000000000 11.664210625     0.000000000  0.000000000  0.085732334

  length of vectors
     9.081119998  6.815485279 11.664210625     0.110118576  0.146724695  0.085732334

 FORCES acting on ions:
    Electron-Ion                     Ewald-Force                    Non-Local-Force
   0.174E+01 0.661E-05 0.711E+01   -.214E+01 0.137E-04 -.743E+01   0.694E-01 0.211E-17 0.383E+00
   -.174E+01 -.168E-04 -.711E+01   0.214E+01 -.192E-04 0.743E+01   -.694E-01 -.210E-17 -.383E+00
   -.174E+01 0.676E-05 0.711E+01   0.214E+01 -.192E-04 -.743E+01   -.694E-01 0.126E-17 0.383E+00
   0.174E+01 -.150E-04 -.711E+01   -.214E+01 0.137E-04 0.743E+01   0.694E-01 0.291E-17 -.383E+00
   -.203E+02 -.248E-04 -.525E+01   0.191E+02 -.175E-04 0.505E+01   0.728E+00 -.772E-18 -.246E+00
   0.203E+02 0.179E-04 0.525E+01   -.191E+02 0.167E-04 -.505E+01   -.728E+00 -.151E-18 0.246E+00
   0.203E+02 0.262E-05 -.525E+01   -.191E+02 0.167E-04 0.505E+01   -.728E+00 -.419E-18 -.246E+00
   -.203E+02 -.880E-05 0.525E+01   0.191E+02 -.175E-04 -.505E+01   0.728E+00 0.375E-18 0.246E+00
   0.568E+01 0.192E+02 -.101E+02   -.648E+01 -.202E+02 0.111E+02   0.809E+00 0.102E+01 -.113E+01
   -.568E+01 -.192E+02 0.101E+02   0.648E+01 0.202E+02 -.111E+02   -.809E+00 -.102E+01 0.113E+01
   -.568E+01 -.192E+02 -.101E+02   0.648E+01 0.202E+02 0.111E+02   -.809E+00 -.102E+01 -.113E+01
   0.568E+01 0.192E+02 0.101E+02   -.648E+01 -.202E+02 -.111E+02   0.809E+00 0.102E+01 0.113E+01
   -.568E+01 0.192E+02 0.101E+02   0.648E+01 -.202E+02 -.111E+02   -.809E+00 0.102E+01 0.113E+01
   0.568E+01 -.192E+02 -.101E+02   -.648E+01 0.202E+02 0.111E+02   0.809E+00 -.102E+01 -.113E+01
   0.568E+01 -.192E+02 0.101E+02   -.648E+01 0.202E+02 -.111E+02   0.809E+00 -.102E+01 0.113E+01
   -.568E+01 0.192E+02 -.101E+02   0.648E+01 -.202E+02 0.111E+02   -.809E+00 0.102E+01 -.113E+01
   0.307E+02 -.148E-04 0.134E+01   -.322E+02 -.788E-05 -.202E+01   0.199E+01 -.245E-17 0.531E+00
   -.307E+02 0.116E-04 -.134E+01   0.322E+02 0.799E-05 0.202E+01   -.199E+01 0.252E-17 -.531E+00
   -.307E+02 -.958E-05 0.134E+01   0.322E+02 0.799E-05 -.202E+01   -.199E+01 -.284E-17 0.531E+00
   0.307E+02 0.621E-05 -.134E+01   -.322E+02 -.788E-05 0.202E+01   0.199E+01 -.104E-17 -.531E+00
   0.369E+01 0.644E-05 0.219E+02   -.387E+01 0.858E-05 -.231E+02   0.299E+00 -.286E-18 0.185E+01
   -.369E+01 -.863E-05 -.219E+02   0.387E+01 -.911E-05 0.231E+02   -.299E+00 0.411E-18 -.185E+01
   -.369E+01 -.389E-05 0.219E+02   0.387E+01 -.911E-05 -.231E+02   -.299E+00 0.162E-18 0.185E+01
   0.369E+01 0.103E-05 -.219E+02   -.387E+01 0.858E-05 0.231E+02   0.299E+00 -.668E-19 -.185E+01
   -.342E-06 -.130E-04 -.799E-03   -.888E-14 -.304E-13 0.107E-13   0.000E+00 -.358E-17 -.222E-15

 POSITION                                       TOTAL-FORCE (eV/Angst)
      0.13600      1.70387      8.06709        -0.289115     -0.000000      0.176981
      8.94512      5.11161      3.59712         0.289115      0.000000     -0.176981
      4.40456      5.11161      2.23499         0.289115     -0.000000      0.176981
      4.67656      1.70387      9.42922        -0.289115      0.000000     -0.176981
      1.43845      5.11161     10.57733        -0.244786      0.000000     -0.468132
      7.64267      1.70387      1.08688         0.244786     -0.000000      0.468132
      3.10211      1.70387      4.74522         0.244786     -0.000000     -0.468132
      5.97901      5.11161      6.91899        -0.244786      0.000000      0.468132
      1.73210      0.40954      1.75879         0.064504      0.154159     -0.249671
      7.34902      6.40595      9.90543        -0.064504     -0.154159      0.249671
      2.80846      6.40595      7.59089        -0.064504     -0.154159     -0.249671
      6.27266      0.40954      4.07332         0.064504      0.154159      0.249671
      7.34902      3.81728      9.90543        -0.064504      0.154159      0.249671
      1.73210      2.99821      1.75879         0.064504     -0.154159     -0.249671
      6.27266      2.99821      4.07332         0.064504     -0.154159      0.249671
      2.80846      3.81728      7.59089        -0.064504      0.154159     -0.249671
      0.65415      5.11161      6.90954         0.585686      0.000000     -0.142005
      8.42697      1.70387      4.75467        -0.585686     -0.000000      0.142005
      3.88641      1.70387      1.07743        -0.585686     -0.000000     -0.142005
      5.19471      5.11161     10.58678         0.585686     -0.000000      0.142005
      1.76135      1.70387     11.17871         0.167070     -0.000000      0.837401
      7.31977      5.11161      0.48550        -0.167070      0.000000     -0.837401
      2.77921      5.11161      5.34660        -0.167070      0.000000      0.837401
      6.30191      1.70387      6.31761         0.167070      0.000000     -0.837401
    total drift:                               -0.000000     -0.000013     -0.000799

  FREE ENERGIE OF THE ION-ELECTRON SYSTEM (eV)
  free  energy   TOTEN  =      -120.47953152 eV

  energy  without entropy=     -120.47953152  energy(sigma->0) =     -120.47953152

 total charge

# of ion       s       p       d       tot
    1        2.011   5.605   0.294   7.910
    2        2.011   5.605   0.294   7.910
    3        2.011   5.605   0.294   7.910
    4        2.011   5.605   0.294   7.910
    5        2.003   5.602   0.276   7.881
    6        2.003   5.602   0.276   7.881
    7        2.003   5.602   0.276   7.881
    8        2.003   5.602   0.276   7.881
    9        1.185   1.157   0.039   2.381
   10        1.185   1.157   0.039   2.381
   11        1.185   1.157   0.039   2.381
   12        1.185   1.157   0.039   2.381
   13        1.186   1.154   0.039   2.379
   14        1.186   1.154   0.039   2.379
   15        1.186   1.154   0.039   2.379
   16        1.186   1.154   0.039   2.379
   17        1.203   1.078   0.041   2.321
   18        1.203   1.078   0.041   2.321
   19        1.203   1.078   0.041   2.321
   20        1.203   1.078   0.041   2.321
   21        1.175   1.159   0.039   2.373
   22        1.175   1.159   0.039   2.373
   23        1.175   1.159   0.039   2.373
   24        1.175   1.159   0.039   2.373
tot         35.052  63.015   2.917 100.984