 vasp.5.4.4.18Apr17-6-g9f103f2a35 (build Nov 21 2017 15:30:27) complex

 executed on             LinuxIFC date 2020.12.16  19:57:23

 INCAR:
 POTCAR:   PAW Sr_sv 10Feb1998
 POTCAR:   PAW Si 02Apr1999

 POTCAR:   PAW Sr_sv 10Feb1998
   VRHFIN =Sr: 3s3p4s

   TITEL  = PAW Sr_sv 10Feb1998
   POMASS =   87.620; ZVAL   =   10.000    mass and valenz
   ENMAX  =  226.327; ENMIN  =  169.745 eV
   QCUT   =   -4.079; QGAM   =    8.157    optimization parameters

   Description
     l     E      TYP  RCUT    TYP  RCUT
     0   .000     23  2.500
     0   .000     23  2.500
     1   .000     23  2.500
     1   .000     23  2.500
     2   .000     23  2.500
     2   .000     23  2.500

 POTCAR:   PAW Si 02Apr1999
   VRHFIN =Si: s2p2

   TITEL  = PAW Si 02Apr1999
   POMASS =   28.085; ZVAL   =    4.000    mass and valenz
   ENMAX  =  245.704; ENMIN  =  184.278 eV
   QCUT   =   -4.250; QGAM   =    8.499    optimization parameters

   Description
     l     E      TYP  RCUT    TYP  RCUT
     0   .000     23  1.900
     0   .000     23  1.900
     1   .000     23  1.900
     1   .000     23  1.900
     2   .000      7  1.900

 Optimization of the real space projectors (new method)

 maximal supplied QI-value         = 15.12
 optimisation between [QCUT,QGAM] = [ 11.34, 22.83] = [ 36.00,145.93] Ry
 Optimized for a Real-space Cutoff    1.56 Angstroem

   l    n(q)    QCUT    max X(q) W(low)/X(q) W(high)/X(q)  e(spline)
   0     11    11.338     6.769    0.16E-04    0.24E-05    0.17E-07
   0     11    11.338    11.010    0.41E-04    0.15E-04    0.16E-06
   1     10    11.338     3.817    0.90E-05    0.31E-06    0.26E-07
   1     10    11.338    44.322    0.19E-03    0.57E-04    0.44E-06
   2     10    11.338     4.916    0.17E-04    0.40E-04    0.76E-07
   2     10    11.338    93.165    0.21E-03    0.40E-03    0.41E-06
 Optimization of the real space projectors (new method)

 maximal supplied QI-value         = 19.84
 optimisation between [QCUT,QGAM] = [ 11.31, 22.82] = [ 35.82,145.81] Ry
 Optimized for a Real-space Cutoff    1.16 Angstroem

   l    n(q)    QCUT    max X(q) W(low)/X(q) W(high)/X(q)  e(spline)
   0      8    11.310     8.540    0.14E-04    0.11E-04    0.43E-08
   0      8    11.310   104.916    0.28E-03    0.31E-03    0.39E-07
   1      7    11.310     5.806    0.79E-05    0.47E-04    0.19E-07
   1      7    11.310    72.249    0.28E-03    0.28E-03    0.75E-07
 PAW Sr_sv 10Feb1998                    :
 PAW Si 02Apr1999                       :

 POSCAR: sr8 si16
  positions in cartesian coordinates
 exchange correlation table for  LEXCH =        2
   RHO(1)=    0.500       N(1)  =     2000
   RHO(2)=  100.500       N(2)  =     4000

 ion  position               nearest neighbor table
   1  0.015  0.250  0.691-  24 3.40  18 3.40  13 3.45  10 3.45  16 3.45  11 3.45  21 3.60  17 3.63
                            17 3.63   5 4.41   5 4.41   7 4.42   4 4.71   4 4.71   8 4.80   8 4.80
   2  0.985  0.750  0.309-  23 3.40  17 3.40   9 3.45  14 3.45  12 3.45  15 3.45  22 3.60  18 3.63
                            18 3.63   6 4.41   6 4.41   8 4.42   3 4.71   3 4.71   7 4.80   7 4.80
   3  0.485  0.750  0.191-  22 3.40  20 3.40  12 3.45  15 3.45   9 3.45  14 3.45  23 3.60  19 3.63
                            19 3.63   7 4.41   7 4.41   5 4.42   2 4.71   2 4.71   6 4.80   6 4.80
   4  0.515  0.250  0.809-  21 3.40  19 3.40  16 3.45  11 3.45  13 3.45  10 3.45  24 3.60  20 3.63
                            20 3.63   8 4.41   8 4.41   6 4.42   1 4.71   1 4.71   5 4.80   5 4.80
   5  0.159  0.750  0.907-  10 3.46  13 3.46  21 3.48  21 3.48  11 3.50  16 3.50  22 3.54   9 3.55
                            14 3.55  17 3.71  20 3.82   1 4.41   1 4.41   3 4.42   4 4.80   4 4.80
   6  0.841  0.250  0.093-  14 3.46   9 3.46  22 3.48  22 3.48  15 3.50  12 3.50  21 3.54  13 3.55
                            10 3.55  18 3.71  19 3.82   2 4.41   2 4.41   4 4.42   3 4.80   3 4.80
   7  0.341  0.250  0.407-  15 3.46  12 3.46  23 3.48  23 3.48  14 3.50   9 3.50  24 3.54  16 3.55
                            11 3.55  19 3.71  18 3.82   3 4.41   3 4.41   1 4.42   2 4.80   2 4.80
   8  0.659  0.750  0.593-  11 3.46  16 3.46  24 3.48  24 3.48  10 3.50  13 3.50  23 3.54  12 3.55
                            15 3.55  20 3.71  17 3.82   4 4.41   4 4.41   2 4.42   1 4.80   1 4.80
   9  0.194  0.073  0.147-  14 2.41  21 2.41  19 2.42   2 3.45   3 3.45   6 3.46   7 3.50   5 3.55

  10  0.806  0.927  0.853-  13 2.41  22 2.41  20 2.42   1 3.45   4 3.45   5 3.46   8 3.50   6 3.55

[...]

  24  0.698  0.250  0.533-  15 2.41  12 2.41  18 2.45   1 3.40   8 3.48   8 3.48   7 3.54   4 3.60

  LATTYP: Found a simple orthorhombic cell.
 ALAT       =     6.7778496742
 B/A-ratio  =     1.3292516818
 C/A-ratio  =     1.7117734747

  Lattice vectors:

 A1 = (   0.0000000000,  -6.7778496742,   0.0000000000)
 A2 = (  -9.0094680786,   0.0000000000,   0.0000000000)
 A3 = (   0.0000000000,   0.0000000000, -11.6021432877)

Analysis of symmetry for initial positions (statically):
 Subroutine PRICEL returns:
 Original cell was already a primitive cell.

 Routine SETGRP: Setting up the symmetry group for a
 simple orthorhombic supercell.

 Subroutine GETGRP returns: Found  8 space group operations
 (whereof  2 operations were pure point group operations)
 out of a pool of  8 trial point group operations.

The static configuration has the point symmetry S_2 .
 The point group associated with its full space group is D_2h.

Analysis of symmetry for dynamics (positions and initial velocities):
 Subroutine PRICEL returns:
 Original cell was already a primitive cell.

 Routine SETGRP: Setting up the symmetry group for a
 simple orthorhombic supercell.

 Subroutine GETGRP returns: Found  8 space group operations
 (whereof  2 operations were pure point group operations)
 out of a pool of  8 trial point group operations.

The dynamic configuration has the point symmetry S_2 .
 The point group associated with its full space group is D_2h.

 Subroutine INISYM returns: Found  8 space group operations
 (whereof  2 operations are pure point group operations),
 and found     1 'primitive' translations

 KPOINTS: k-density: 6.0

Automatic generation of k-mesh.
Space group operators:
 irot       det(A)        alpha          n_x          n_y          n_z        tau_x        tau_y        tau_z
    1     1.000000     0.000000     1.000000     0.000000     0.000000     0.000000     0.000000     0.000000
    2    -1.000000     0.000000     1.000000     0.000000     0.000000     0.000000     0.000000     0.000000
    3     1.000000   180.000000     0.000000     0.000000     1.000000    -0.500000     0.000000    -0.500000
    4    -1.000000   180.000000     0.000000     0.000000     1.000000    -0.500000     0.000000    -0.500000
    5     1.000000   180.000000     1.000000     0.000000     0.000000    -0.500000    -0.500000    -0.500000
    6    -1.000000   180.000000     1.000000     0.000000     0.000000    -0.500000    -0.500000    -0.500000
    7     1.000000   180.000000     0.000000     1.000000     0.000000    -0.000000    -0.500000    -0.000000
    8    -1.000000   180.000000     0.000000     1.000000     0.000000     0.000000    -0.500000     0.000000

 Subroutine IBZKPT returns following result:

 Found     36 irreducible k-points:

 Following reciprocal coordinates:
            Coordinates               Weight
  0.000000  0.000000  0.000000      1.000000
  0.200000  0.000000  0.000000      2.000000
  0.400000  0.000000  0.000000      2.000000
  0.000000  0.166667  0.000000      2.000000
  0.200000  0.166667  0.000000      4.000000
  0.400000  0.166667  0.000000      4.000000
  0.000000  0.333333  0.000000      2.000000
  0.200000  0.333333  0.000000      4.000000
  0.400000  0.333333  0.000000      4.000000
  0.000000  0.500000  0.000000      1.000000
  0.200000  0.500000  0.000000      2.000000
  0.400000  0.500000  0.000000      2.000000
  0.000000  0.000000  0.250000      2.000000
  0.200000  0.000000  0.250000      4.000000
  0.400000  0.000000  0.250000      4.000000
  0.000000  0.166667  0.250000      4.000000
  0.200000  0.166667  0.250000      8.000000
  0.400000  0.166667  0.250000      8.000000
  0.000000  0.333333  0.250000      4.000000
  0.200000  0.333333  0.250000      8.000000
  0.400000  0.333333  0.250000      8.000000
  0.000000  0.500000  0.250000      2.000000
  0.200000  0.500000  0.250000      4.000000
  0.400000  0.500000  0.250000      4.000000
  0.000000  0.000000  0.500000      1.000000
  0.200000  0.000000  0.500000      2.000000
  0.400000  0.000000  0.500000      2.000000
  0.000000  0.166667  0.500000      2.000000
  0.200000  0.166667  0.500000      4.000000
  0.400000  0.166667  0.500000      4.000000
  0.000000  0.333333  0.500000      2.000000
  0.200000  0.333333  0.500000      4.000000
  0.400000  0.333333  0.500000      4.000000
  0.000000  0.500000  0.500000      1.000000
  0.200000  0.500000  0.500000      2.000000
  0.400000  0.500000  0.500000      2.000000

 Following cartesian coordinates:
            Coordinates               Weight
  0.000000  0.000000  0.000000      1.000000
  0.022199  0.000000  0.000000      2.000000
  0.044398  0.000000  0.000000      2.000000
  0.000000  0.024590  0.000000      2.000000
  0.022199  0.024590  0.000000      4.000000
  0.044398  0.024590  0.000000      4.000000
  0.000000  0.049180  0.000000      2.000000
  0.022199  0.049180  0.000000      4.000000
  0.044398  0.049180  0.000000      4.000000
  0.000000  0.073770  0.000000      1.000000
  0.022199  0.073770  0.000000      2.000000
  0.044398  0.073770  0.000000      2.000000
  0.000000  0.000000  0.021548      2.000000
  0.022199  0.000000  0.021548      4.000000
  0.044398  0.000000  0.021548      4.000000
  0.000000  0.024590  0.021548      4.000000
  0.022199  0.024590  0.021548      8.000000
  0.044398  0.024590  0.021548      8.000000
  0.000000  0.049180  0.021548      4.000000
  0.022199  0.049180  0.021548      8.000000
  0.044398  0.049180  0.021548      8.000000
  0.000000  0.073770  0.021548      2.000000
  0.022199  0.073770  0.021548      4.000000
  0.044398  0.073770  0.021548      4.000000
  0.000000  0.000000  0.043095      1.000000
  0.022199  0.000000  0.043095      2.000000
  0.044398  0.000000  0.043095      2.000000
  0.000000  0.024590  0.043095      2.000000
  0.022199  0.024590  0.043095      4.000000
  0.044398  0.024590  0.043095      4.000000
  0.000000  0.049180  0.043095      2.000000
  0.022199  0.049180  0.043095      4.000000
  0.044398  0.049180  0.043095      4.000000
  0.000000  0.073770  0.043095      1.000000
  0.022199  0.073770  0.043095      2.000000
  0.044398  0.073770  0.043095      2.000000

 TETIRR: Found    360 inequivalent tetrahedra from      720

 SYSTEM =  unknown system
 POSCAR =  sr8 si16

 Startparameter for this run:
   NWRITE =      2    write-flag & timer
   PREC   = normal    normal or accurate (medium, high low for compatibility)
   ISTART =      0    job   : 0-new  1-cont  2-samecut
   ICHARG =      2    charge: 1-file 2-atom 10-const
   ISPIN  =      1    spin polarized calculation?
   LNONCOLLINEAR =      F non collinear calculations
   LSORBIT =      F    spin-orbit coupling
[...]
      1.75027      0.49167      1.70254        -0.014858     -0.210367      0.075383
      7.25920      6.28618      9.89960         0.014858      0.210367     -0.075383
      2.75446      6.28618      7.50362         0.014858      0.210367      0.075383
      6.25500      0.49167      4.09853        -0.014858     -0.210367     -0.075383
      7.25920      3.88060      9.89960         0.014858     -0.210367     -0.075383
      1.75027      2.89725      1.70254        -0.014858      0.210367      0.075383
      6.25500      2.89725      4.09853        -0.014858      0.210367     -0.075383
      2.75446      3.88060      7.50362         0.014858     -0.210367      0.075383
      0.74693      5.08339      6.86848        -0.036746      0.000000     -0.125661
      8.26254      1.69446      4.73366         0.036746     -0.000000      0.125661
      3.75780      1.69446      1.06741         0.036746      0.000000     -0.125661
      5.25166      5.08339     10.53473        -0.036746      0.000000      0.125661
      1.78112      1.69446     11.21858         0.092175      0.000000     -0.218937
      7.22835      5.08339      0.38357        -0.092175      0.000000      0.218937
      2.72362      5.08339      5.41750        -0.092175      0.000000     -0.218937
      6.28585      1.69446      6.18464         0.092175     -0.000000      0.218937
    total drift:                               -0.000364      0.000522      0.000074

  FREE ENERGIE OF THE ION-ELECTRON SYSTEM (eV)
  free  energy   TOTEN  =      -116.27834195 eV

  energy  without entropy=     -116.27834195  energy(sigma->0) =     -116.27834195

[...]

 E-fermi :   4.0490     XC(G=0):  -9.3510     alpha+bet :-10.8144

[...]

 d Force = 0.1216195E+00[ 0.202E+00, 0.413E-01]  d Energy = 0.2175762E+01-0.205E+01
 d Force = 0.4199023E+01[ 0.432E+01, 0.408E+01]  d Ewald  = 0.3542145E+03-0.350E+03

 Steepest descent step on ions:
 trial-energy change:   -2.175762  1 .order   -2.004038   -4.083098    0.075023
  (g-gl).g = 0.408E+01      g.g   = 0.408E+01  gl.gl    = 0.000E+00
 g(Force)  = 0.436E-01   g(Stress)= 0.404E+01 ortho     = 0.000E+00
 gamma     =   0.00000
 trial     =   1.00000
 opt step  =   0.98550  (harmonic =   0.98196) maximal distance =0.01040892
 next E    =  -118.454647   (d E  =  -2.17631)

[...]

 d Force =-0.3072535E-02[-0.305E-02,-0.309E-02]  d Energy = 0.7919375E-03-0.386E-02
 d Force =-0.6614566E-01[-0.661E-01,-0.662E-01]  d Ewald  =-0.5416066E+01 0.535E+01

[...]

 d Force = 0.1105341E+01[ 0.626E-01, 0.215E+01]  d Energy = 0.9394997E+00 0.166E+00
 d Force = 0.4848836E+02[ 0.399E+02, 0.570E+02]  d Ewald  = 0.2157501E+03-0.167E+03

 Conjugate gradient step on ions:
 trial-energy change:   -0.939500  1 .order   -0.969771   -2.101165    0.161623
  (g-gl).g = 0.212E+01      g.g   = 0.211E+01  gl.gl    = 0.408E+01
 g(Force)  = 0.210E+01   g(Stress)= 0.117E-01 ortho     =-0.590E-02
 gamma     =   0.51829
 trial     =   0.99710
 opt step  =   0.92018  (harmonic =   0.92588) maximal distance =0.07495896
 next E    =  -119.400643   (d E  =  -0.94575)

[...]

 d Force =-0.1064147E-01[-0.163E-01,-0.495E-02]  d Energy = 0.6356190E-02-0.170E-01
 d Force =-0.3215689E+01[-0.327E+01,-0.316E+01]  d Ewald  =-0.1640503E+02 0.132E+02

[...]

 d Force = 0.1681885E-01[ 0.512E-02, 0.285E-01]  d Energy = 0.2443476E-01-0.762E-02
 d Force = 0.1571011E+01[ 0.151E+01, 0.163E+01]  d Ewald  =-0.4740818E+02 0.490E+02

 Conjugate gradient step on ions:
 trial-energy change:   -0.024435  1 .order   -0.024888   -0.089613    0.039836
  (g-gl).g =-0.141E+00      g.g   = 0.919E-01  gl.gl    = 0.211E+01
 g(Force)  = 0.430E-01   g(Stress)= 0.489E-01 ortho     = 0.909E-02
 gamma     =  -0.06691
 trial     =   0.98172
 opt step  =   0.67517  (harmonic =   0.67961) maximal distance =0.00748510
 next E    =  -119.431419   (d E  =  -0.03067)

 real space projection operators:
  max/ min on nodes  :       1388.97       1276.69

[...]

 eigenvalue-minimisations  :  7472
 total energy-change (2. order) :-0.3234377E-03  (-0.5989053E-04)
 number of electron     144.0000008 magnetization
 augmentation part        0.7425127 magnetization

[...]

 Broyden mixing:
  rms(total) = 0.84942E-03    rms(broyden)= 0.84942E-03
  rms(prec ) = 0.10639E-02
  weight for this iteration     100.00

 eigenvalues of (default mixing * dielectric matrix)
  average eigenvalue GAMMA=   1.3670
  2.6719  1.2958  1.2958  1.7199  1.7199  0.9849  0.5548  0.6927

[...]

--------------------------------------- Iteration      7(  10)  ---------------------------------------

 BZINTS: Fermi energy:  4.558172;144.000000 electrons
         Band energy:***********;  BLOECHL correction:  0.000000

 eigenvalue-minimisations  :  4680
 total energy-change (2. order) : 0.2447159E-06  (-0.2006669E-06)
 number of electron     144.0000008 magnetization
 augmentation part        0.7393877 magnetization

 Free energy of the ion-electron system (eV)
  alpha Z        PSCENC =       394.85380353
  Ewald energy   TEWEN  =     -6890.01452637
  -Hartree energ DENC   =     -1458.14880277
  -exchange      EXHF   =         0.00000000
  -V(xc)+E(xc)   XCENC  =       139.95416048
  PAW double counting   =      4737.51388977    -4406.35514737
  entropy T*S    EENTRO =         0.00000000
  eigenvalues    EBANDS =     -1057.03564551
  atomic energy  EATOM  =      8419.80093738
  Solvation  Ediel_sol  =         0.00000000
  free energy    TOTEN  =      -119.43133085 eV

  energy without entropy =     -119.43133085  energy(sigma->0) =     -119.43133085

 average (electrostatic) potential at core
  the test charge radii are     1.1929  0.9892
  (the norm of the test charge is              1.0000)
       1 -36.0578       2 -36.0578       3 -36.0578       4 -36.0578       5 -36.3179
       6 -36.3179       7 -36.3179       8 -36.3179       9 -85.9635      10 -85.9635
      11 -85.9635      12 -85.9635      13 -85.9635      14 -85.9635      15 -85.9635
      16 -85.9635      17 -86.0283      18 -86.0283      19 -86.0283      20 -86.0283
      21 -85.8947      22 -85.8947      23 -85.8947      24 -85.8947

 E-fermi :   4.5582     XC(G=0):  -9.5969     alpha+bet :-11.3739

[...]

 k-point    36 :       0.4000    0.5000    0.5000
  band No.  band energies     occupation
      1     -30.4986      2.00000
      2     -30.4986      2.00000
      3     -30.4985      2.00000
      4     -30.4985      2.00000
      5     -30.2694      2.00000
      6     -30.2694      2.00000
      7     -30.2681      2.00000
      8     -30.2681      2.00000
      9     -12.7390      2.00000
     10     -12.7390      2.00000
     11     -12.7358      2.00000
     12     -12.7358      2.00000
     13     -12.7225      2.00000
     14     -12.7225      2.00000
     15     -12.7209      2.00000
     16     -12.7209      2.00000
     17     -12.6602      2.00000
     18     -12.6602      2.00000
     19     -12.6557      2.00000
     20     -12.6557      2.00000
     21     -12.5086      2.00000
     22     -12.5086      2.00000
     23     -12.4891      2.00000
     24     -12.4891      2.00000
     25     -12.4646      2.00000
     26     -12.4646      2.00000
     27     -12.4538      2.00000
     28     -12.4538      2.00000
     29     -12.4516      2.00000
     30     -12.4516      2.00000
     31     -12.4495      2.00000
     32     -12.4495      2.00000
     33      -6.6145      2.00000
     34      -6.6145      2.00000
     35      -6.5922      2.00000
     36      -6.5922      2.00000
     37      -2.3821      2.00000
     38      -2.3821      2.00000
     39      -2.2374      2.00000
     40      -2.2373      2.00000
     41      -1.6251      2.00000
     42      -1.6251      2.00000
     43      -1.5721      2.00000
     44      -1.5721      2.00000
     45      -1.4074      2.00000
     46      -1.4074      2.00000
     47      -1.3441      2.00000
     48      -1.3441      2.00000
     49       1.3163      2.00000
     50       1.3163      2.00000
     51       1.5227      2.00000
     52       1.5227      2.00000
     53       2.0435      2.00000
     54       2.0436      2.00000
     55       2.2213      2.00000
     56       2.2213      2.00000
     57       2.6693      2.00000
     58       2.6693      2.00000
     59       2.7128      2.00000
     60       2.7128      2.00000
[...]
     74       5.0745      0.00000
     75       5.2965      0.00000
     76       5.2965      0.00000
     77       5.5003      0.00000
     78       5.5003      0.00000
     79       5.6571      0.00000
     80       5.6571      0.00000
     81       6.3847      0.00000
     82       6.3847      0.00000
     83       6.6126      0.00000
     84       6.6126      0.00000
     85       6.9929      0.00000
     86       6.9929      0.00000
     87       7.1684      0.00000
     88       7.1684      0.00000

 soft charge-density along one line, spin component           1
         0         1         2         3         4         5         6         7         8         9
 total charge-density along one line

------------------------ aborting loop because EDIFF is reached ----------------------------------------

  FORCE on cell =-STRESS in cart. coord.  units (eV):
  Direction    XX          YY          ZZ          XY          YZ          ZX
  Alpha Z   394.85380   394.85380   394.85380
  Ewald   -2308.61022 -2292.38414 -2289.03972    -0.00000    -0.00000    -0.00013
  Hartree   477.03998   493.39721   487.69415    -0.00000    -0.00000    -0.00000
  E(xc)    -499.11772  -498.91949  -498.89013    -0.00000     0.00000    -0.00000
  Local     214.01140   187.07225   191.16331     0.00000     0.00000     0.00010
  n-local   251.55089   247.22999   248.12227    -0.14119    -0.13582    -0.13768
  augment   -74.69381   -73.43884   -73.72565     0.00000     0.00000    -0.00000
  Kinetic  1544.28979  1542.04143  1538.96094     1.25208    -1.41000     0.34668
  Fock        0.00000     0.00000     0.00000     0.00000     0.00000     0.00000
  Total      -0.67589    -0.14779    -0.86102    -0.00000     0.00000     0.00000
  in kB      -1.88699    -0.41259    -2.40384    -0.00000     0.00000     0.00000

 VOLUME and BASIS-vectors are now :
  energy-cutoff  :      500.00
  volume of cell :      573.88
      direct lattice vectors                 reciprocal lattice vectors
     8.417969268  0.000000000  0.000000000     0.118793496 -0.000000000  0.000000000
     0.000000000  6.306623834  0.000000000    -0.000000000  0.158563445  0.000000000
     0.000000000  0.000000000 10.809745402     0.000000000  0.000000000  0.092509117

  length of vectors
     8.417969268  6.306623834 10.809745402     0.118793496  0.158563445  0.092509117

 FORCES acting on ions
    electron-ion (+dipol)            ewald-force                    non-local-force                 convergence-correction
   0.231E+01 0.914E-04 0.756E+01   -.261E+01 0.159E-04 -.793E+01   0.382E+00 0.885E-18 0.397E+00   0.785E-03 -.214E-08 0.197E-02
   -.232E+01 0.123E-04 -.756E+01   0.261E+01 -.223E-04 0.793E+01   -.382E+00 0.877E-18 -.397E+00   -.785E-03 0.555E-09 -.197E-02
   -.232E+01 0.715E-05 0.756E+01   0.261E+01 -.223E-04 -.793E+01   -.382E+00 0.465E-18 0.397E+00   -.785E-03 0.732E-09 0.197E-02
   0.231E+01 0.863E-04 -.756E+01   -.261E+01 0.159E-04 0.793E+01   0.382E+00 0.370E-18 -.397E+00   0.785E-03 -.197E-08 -.197E-02
   -.236E+02 0.106E-04 -.539E+01   0.228E+02 -.203E-04 0.558E+01   0.765E+00 -.159E-17 -.176E+00   0.284E-02 0.189E-08 -.569E-04
   0.236E+02 0.886E-04 0.539E+01   -.228E+02 0.194E-04 -.558E+01   -.765E+00 -.170E-17 0.176E+00   -.284E-02 0.703E-09 0.569E-04
   0.236E+02 0.873E-04 -.539E+01   -.228E+02 0.194E-04 0.558E+01   -.765E+00 0.284E-18 -.176E+00   -.284E-02 0.556E-09 -.569E-04
   -.236E+02 0.938E-05 0.539E+01   0.228E+02 -.203E-04 -.558E+01   0.765E+00 -.482E-18 0.176E+00   0.284E-02 0.174E-08 0.569E-04
   0.784E+01 0.241E+02 -.135E+02   -.805E+01 -.248E+02 0.139E+02   0.245E+00 0.698E+00 -.469E+00   -.898E-03 -.284E-02 0.191E-02
   -.784E+01 -.241E+02 0.135E+02   0.805E+01 0.248E+02 -.139E+02   -.245E+00 -.698E+00 0.469E+00   0.898E-03 0.284E-02 -.191E-02
   -.784E+01 -.241E+02 -.135E+02   0.805E+01 0.248E+02 0.139E+02   -.245E+00 -.698E+00 -.469E+00   0.898E-03 0.284E-02 0.191E-02
   0.784E+01 0.241E+02 0.135E+02   -.805E+01 -.248E+02 -.139E+02   0.245E+00 0.698E+00 0.469E+00   -.898E-03 -.284E-02 -.191E-02
   -.784E+01 0.241E+02 0.135E+02   0.805E+01 -.248E+02 -.139E+02   -.245E+00 0.698E+00 0.469E+00   0.898E-03 -.284E-02 -.191E-02
   0.784E+01 -.241E+02 -.135E+02   -.805E+01 0.248E+02 0.139E+02   0.245E+00 -.698E+00 -.469E+00   -.898E-03 0.284E-02 0.191E-02
   0.784E+01 -.241E+02 0.135E+02   -.805E+01 0.248E+02 -.139E+02   0.245E+00 -.698E+00 0.469E+00   -.898E-03 0.284E-02 -.191E-02
   -.784E+01 0.241E+02 -.135E+02   0.805E+01 -.248E+02 0.139E+02   -.245E+00 0.698E+00 -.469E+00   0.898E-03 -.284E-02 0.191E-02
   0.385E+02 -.107E-04 0.863E+00   -.395E+02 -.913E-05 -.193E+01   0.101E+01 -.491E-17 0.113E+01   -.334E-02 0.670E-09 0.141E-03
   -.385E+02 -.260E-05 -.863E+00   0.395E+02 0.926E-05 0.193E+01   -.101E+01 -.908E-18 -.113E+01   0.334E-02 -.766E-09 -.141E-03
   -.385E+02 0.779E-05 0.863E+00   0.395E+02 0.926E-05 -.193E+01   -.101E+01 -.480E-17 0.113E+01   0.334E-02 -.700E-09 0.141E-03
   0.385E+02 -.342E-06 -.863E+00   -.395E+02 -.913E-05 0.193E+01   0.101E+01 0.520E-17 -.113E+01   -.334E-02 0.736E-09 -.141E-03
   0.560E+01 -.507E-05 0.278E+02   -.515E+01 0.996E-05 -.286E+02   -.496E+00 -.295E-17 0.735E+00   -.919E-03 -.850E-09 -.339E-02
   -.560E+01 -.120E-04 -.278E+02   0.515E+01 -.106E-04 0.286E+02   0.496E+00 0.178E-17 -.735E+00   0.919E-03 0.454E-09 0.339E-02
   -.560E+01 0.302E-06 0.278E+02   0.515E+01 -.106E-04 -.286E+02   0.496E+00 0.394E-17 0.735E+00   0.919E-03 0.337E-09 -.339E-02
   0.560E+01 0.727E-05 -.278E+02   -.515E+01 0.996E-05 0.286E+02   -.496E+00 -.500E-17 -.735E+00   -.919E-03 -.967E-09 0.339E-02
   -.322E-03 0.447E-03 0.533E-04   -.231E-13 0.581E-14 0.711E-14   0.222E-15 -.765E-17 0.000E+00   -.269E-08 -.249E-09 -.551E-08

 POSITION                                       TOTAL-FORCE (eV/Angst)
      0.12621      1.57666      7.48054         0.084953     -0.000000      0.031001
      8.29176      4.72997      3.32921        -0.084953     -0.000000     -0.031001
      4.08278      4.72997      2.07566        -0.084953     -0.000000      0.031001
      4.33519      1.57666      8.73408         0.084953     -0.000000     -0.031001
      1.32694      4.72997      9.79964         0.018421      0.000000      0.007603
      7.09103      1.57666      1.01011        -0.018421     -0.000000     -0.007603
      2.88205      1.57666      4.39476        -0.018421      0.000000      0.007603
      5.53592      4.72997      6.41498         0.018421      0.000000     -0.007603
      1.61228      0.38438      1.62038         0.039917      0.029221     -0.072863
      6.80569      5.92225      9.18936        -0.039917     -0.029221      0.072863
      2.59671      5.92225      7.02526        -0.039917     -0.029221     -0.072863
      5.82126      0.38438      3.78449         0.039917      0.029221      0.072863
      6.80569      3.53769      9.18936        -0.039917      0.029221      0.072863
      1.61228      2.76894      1.62038         0.039917     -0.029221     -0.072863
      5.82126      2.76894      3.78449         0.039917     -0.029221      0.072863
      2.59671      3.53769      7.02526        -0.039917      0.029221     -0.072863
      0.61613      4.72997      6.39364        -0.077988     -0.000000      0.061880
      7.80184      1.57666      4.41610         0.077988      0.000000     -0.061880
      3.59286      1.57666      0.98877         0.077988      0.000000      0.061880
      4.82511      4.72997      9.82098        -0.077988     -0.000000     -0.061880
      1.64554      1.57666     10.36666        -0.051804     -0.000000     -0.044117
      6.77243      4.72997      0.44309         0.051804      0.000000      0.044117
      2.56344      4.72997      4.96178         0.051804      0.000000     -0.044117
      5.85453      1.57666      5.84796        -0.051804     -0.000000      0.044117
    total drift:                               -0.000322      0.000447      0.000053

  FREE ENERGIE OF THE ION-ELECTRON SYSTEM (eV)
  free  energy   TOTEN  =      -119.43133085 eV

  energy  without entropy=     -119.43133085  energy(sigma->0) =     -119.43133085

 d Force =-0.2646828E-02[-0.371E-02,-0.159E-02]  d Energy = 0.6144724E-02-0.879E-02
 d Force =-0.4724121E+00[-0.478E+00,-0.467E+00]  d Ewald  = 0.1474532E+02-0.152E+02

 reached required accuracy - stopping structural energy minimisation
 writing wavefunctions
 BZINTS: Fermi energy:  4.558172;144.000000 electrons
         Band energy:***********;  BLOECHL correction:  0.000000