 vasp.5.4.4.18Apr17-6-g9f103f2a35 (build Nov 21 2017 15:30:27) complex

 executed on             LinuxIFC date 2020.12.16  20:12:00

 INCAR:
 POTCAR:   PAW_PBE Sr_sv 07Sep2000
 POTCAR:   PAW_PBE Si 05Jan2001

 POTCAR:   PAW_PBE Sr_sv 07Sep2000
   VRHFIN =Sr: 4s4p5s

   TITEL  = PAW_PBE Sr_sv 07Sep2000
   POMASS =   87.620; ZVAL   =   10.000    mass and valenz
   ENMAX  =  229.282; ENMIN  =  171.961 eV
   QCUT   =   -4.105; QGAM   =    8.210    optimization parameters

   Description
     l     E      TYP  RCUT    TYP  RCUT
     0   .000     23  2.480
     0   .000     23  2.480
     1   .000     23  2.500
     1   .000     23  2.500
     2   .000     23  2.500
     2   .000     23  2.500

 POTCAR:   PAW_PBE Si 05Jan2001
   VRHFIN =Si: s2p2

   TITEL  = PAW_PBE Si 05Jan2001
   POMASS =   28.085; ZVAL   =    4.000    mass and valenz
   ENMAX  =  245.345; ENMIN  =  184.009 eV
   QCUT   =   -4.246; QGAM   =    8.493    optimization parameters

   Description
     l     E      TYP  RCUT    TYP  RCUT
     0   .000     23  1.900
     0   .000     23  1.900
     1   .000     23  1.900
     1   .000     23  1.900
     2   .000      7  1.900

 Optimization of the real space projectors (new method)

 maximal supplied QI-value         = 15.12
 optimisation between [QCUT,QGAM] = [ 11.34, 22.83] = [ 36.00,145.93] Ry
 Optimized for a Real-space Cutoff    1.56 Angstroem

   l    n(q)    QCUT    max X(q) W(low)/X(q) W(high)/X(q)  e(spline)
   0     11    11.338     6.584    0.15E-04    0.24E-05    0.13E-07
   0     11    11.338    11.383    0.41E-04    0.15E-04    0.15E-06
   1     10    11.338     3.802    0.90E-05    0.33E-06    0.26E-07
   1     10    11.338    39.081    0.19E-03    0.53E-04    0.42E-06
   2     10    11.338     4.950    0.16E-04    0.40E-04    0.77E-07
   2     10    11.338    88.754    0.21E-03    0.41E-03    0.42E-06
 Optimization of the real space projectors (new method)

 maximal supplied QI-value         = 19.84
 optimisation between [QCUT,QGAM] = [ 11.31, 22.82] = [ 35.82,145.81] Ry
 Optimized for a Real-space Cutoff    1.16 Angstroem

   l    n(q)    QCUT    max X(q) W(low)/X(q) W(high)/X(q)  e(spline)
   0      8    11.310     8.708    0.14E-04    0.11E-04    0.43E-08
   0      8    11.310   106.241    0.27E-03    0.30E-03    0.38E-07
   1      7    11.310     5.901    0.82E-05    0.48E-04    0.19E-07
   1      7    11.310    73.241    0.27E-03    0.27E-03    0.74E-07

 PAW_PBE Sr_sv 07Sep2000                :
 PAW_PBE Si 05Jan2001                   :

 POSCAR: sr8 si16
  positions in cartesian coordinates
 exchange correlation table for  LEXCH =       42
   RHO(1)=    0.500       N(1)  =     2000
   RHO(2)=  100.500       N(2)  =     4000

 ion  position               nearest neighbor table
   1  0.015  0.250  0.691-  24 3.40  18 3.40  13 3.45  10 3.45  16 3.45  11 3.45  21 3.60  17 3.63
                            17 3.63   5 4.41   5 4.41   7 4.42   4 4.71   4 4.71   8 4.80   8 4.80
   2  0.985  0.750  0.309-  23 3.40  17 3.40   9 3.45  14 3.45  12 3.45  15 3.45  22 3.60  18 3.63
                            18 3.63   6 4.41   6 4.41   8 4.42   3 4.71   3 4.71   7 4.80   7 4.80
   3  0.485  0.750  0.191-  22 3.40  20 3.40  12 3.45  15 3.45   9 3.45  14 3.45  23 3.60  19 3.63
                            19 3.63   7 4.41   7 4.41   5 4.42   2 4.71   2 4.71   6 4.80   6 4.80
   4  0.515  0.250  0.809-  21 3.40  19 3.40  16 3.45  11 3.45  13 3.45  10 3.45  24 3.60  20 3.63
                            20 3.63   8 4.41   8 4.41   6 4.42   1 4.71   1 4.71   5 4.80   5 4.80
   5  0.159  0.750  0.907-  10 3.46  13 3.46  21 3.48  21 3.48  11 3.50  16 3.50  22 3.54   9 3.55
                            14 3.55  17 3.71  20 3.82   1 4.41   1 4.41   3 4.42   4 4.80   4 4.80
   6  0.841  0.250  0.093-  14 3.46   9 3.46  22 3.48  22 3.48  15 3.50  12 3.50  21 3.54  13 3.55
                            10 3.55  18 3.71  19 3.82   2 4.41   2 4.41   4 4.42   3 4.80   3 4.80
   7  0.341  0.250  0.407-  15 3.46  12 3.46  23 3.48  23 3.48  14 3.50   9 3.50  24 3.54  16 3.55
                            11 3.55  19 3.71  18 3.82   3 4.41   3 4.41   1 4.42   2 4.80   2 4.80
   8  0.659  0.750  0.593-  11 3.46  16 3.46  24 3.48  24 3.48  10 3.50  13 3.50  23 3.54  12 3.55
                            15 3.55  20 3.71  17 3.82   4 4.41   4 4.41   2 4.42   1 4.80   1 4.80
   9  0.194  0.073  0.147-  14 2.41  21 2.41  19 2.42   2 3.45   3 3.45   6 3.46   7 3.50   5 3.55

  10  0.806  0.927  0.853-  13 2.41  22 2.41  20 2.42   1 3.45   4 3.45   5 3.46   8 3.50   6 3.55

[...]

  24  0.698  0.250  0.533-  15 2.41  12 2.41  18 2.45   1 3.40   8 3.48   8 3.48   7 3.54   4 3.60

  LATTYP: Found a simple orthorhombic cell.
 ALAT       =     6.7778496742
 B/A-ratio  =     1.3292516818
 C/A-ratio  =     1.7117734747

  Lattice vectors:

 A1 = (   0.0000000000,  -6.7778496742,   0.0000000000)
 A2 = (  -9.0094680786,   0.0000000000,   0.0000000000)
 A3 = (   0.0000000000,   0.0000000000, -11.6021432877)

Analysis of symmetry for initial positions (statically):
 Subroutine PRICEL returns:
 Original cell was already a primitive cell.

 Routine SETGRP: Setting up the symmetry group for a
 simple orthorhombic supercell.

 Subroutine GETGRP returns: Found  8 space group operations
 (whereof  2 operations were pure point group operations)
 out of a pool of  8 trial point group operations.

The static configuration has the point symmetry S_2 .
 The point group associated with its full space group is D_2h.

Analysis of symmetry for dynamics (positions and initial velocities):
 Subroutine PRICEL returns:
 Original cell was already a primitive cell.

 Routine SETGRP: Setting up the symmetry group for a
 simple orthorhombic supercell.

 Subroutine GETGRP returns: Found  8 space group operations
 (whereof  2 operations were pure point group operations)
 out of a pool of  8 trial point group operations.

The dynamic configuration has the point symmetry S_2 .
 The point group associated with its full space group is D_2h.

 Subroutine INISYM returns: Found  8 space group operations
 (whereof  2 operations are pure point group operations),
 and found     1 'primitive' translations

 KPOINTS: k-density: 6.0

Automatic generation of k-mesh.
Space group operators:
 irot       det(A)        alpha          n_x          n_y          n_z        tau_x        tau_y        tau_z
    1     1.000000     0.000000     1.000000     0.000000     0.000000     0.000000     0.000000     0.000000
    2    -1.000000     0.000000     1.000000     0.000000     0.000000     0.000000     0.000000     0.000000
    3     1.000000   180.000000     0.000000     0.000000     1.000000    -0.500000     0.000000    -0.500000
    4    -1.000000   180.000000     0.000000     0.000000     1.000000    -0.500000     0.000000    -0.500000
    5     1.000000   180.000000     1.000000     0.000000     0.000000    -0.500000    -0.500000    -0.500000
    6    -1.000000   180.000000     1.000000     0.000000     0.000000    -0.500000    -0.500000    -0.500000
    7     1.000000   180.000000     0.000000     1.000000     0.000000    -0.000000    -0.500000    -0.000000
    8    -1.000000   180.000000     0.000000     1.000000     0.000000     0.000000    -0.500000     0.000000

 Subroutine IBZKPT returns following result:

 Found     36 irreducible k-points:

 Following reciprocal coordinates:
            Coordinates               Weight
  0.000000  0.000000  0.000000      1.000000
  0.200000  0.000000  0.000000      2.000000
  0.400000  0.000000  0.000000      2.000000
  0.000000  0.166667  0.000000      2.000000
  0.200000  0.166667  0.000000      4.000000
  0.400000  0.166667  0.000000      4.000000
  0.000000  0.333333  0.000000      2.000000
  0.200000  0.333333  0.000000      4.000000
  0.400000  0.333333  0.000000      4.000000
  0.000000  0.500000  0.000000      1.000000
  0.200000  0.500000  0.000000      2.000000
  0.400000  0.500000  0.000000      2.000000
  0.000000  0.000000  0.250000      2.000000
  0.200000  0.000000  0.250000      4.000000
  0.400000  0.000000  0.250000      4.000000
  0.000000  0.166667  0.250000      4.000000
  0.200000  0.166667  0.250000      8.000000
  0.400000  0.166667  0.250000      8.000000
  0.000000  0.333333  0.250000      4.000000
  0.200000  0.333333  0.250000      8.000000
  0.400000  0.333333  0.250000      8.000000
  0.000000  0.500000  0.250000      2.000000
  0.200000  0.500000  0.250000      4.000000
  0.400000  0.500000  0.250000      4.000000
  0.000000  0.000000  0.500000      1.000000
  0.200000  0.000000  0.500000      2.000000
  0.400000  0.000000  0.500000      2.000000
  0.000000  0.166667  0.500000      2.000000
  0.200000  0.166667  0.500000      4.000000
  0.400000  0.166667  0.500000      4.000000
  0.000000  0.333333  0.500000      2.000000
  0.200000  0.333333  0.500000      4.000000
  0.400000  0.333333  0.500000      4.000000
  0.000000  0.500000  0.500000      1.000000
  0.200000  0.500000  0.500000      2.000000
  0.400000  0.500000  0.500000      2.000000

 Following cartesian coordinates:
            Coordinates               Weight
  0.000000  0.000000  0.000000      1.000000
  0.022199  0.000000  0.000000      2.000000
  0.044398  0.000000  0.000000      2.000000
  0.000000  0.024590  0.000000      2.000000
  0.022199  0.024590  0.000000      4.000000
  0.044398  0.024590  0.000000      4.000000
  0.000000  0.049180  0.000000      2.000000
  0.022199  0.049180  0.000000      4.000000
  0.044398  0.049180  0.000000      4.000000
  0.000000  0.073770  0.000000      1.000000
  0.022199  0.073770  0.000000      2.000000
  0.044398  0.073770  0.000000      2.000000
  0.000000  0.000000  0.021548      2.000000
  0.022199  0.000000  0.021548      4.000000
  0.044398  0.000000  0.021548      4.000000
  0.000000  0.024590  0.021548      4.000000
  0.022199  0.024590  0.021548      8.000000
  0.044398  0.024590  0.021548      8.000000
  0.000000  0.049180  0.021548      4.000000
  0.022199  0.049180  0.021548      8.000000
  0.044398  0.049180  0.021548      8.000000
  0.000000  0.073770  0.021548      2.000000
  0.022199  0.073770  0.021548      4.000000
  0.044398  0.073770  0.021548      4.000000
  0.000000  0.000000  0.043095      1.000000
  0.022199  0.000000  0.043095      2.000000
  0.044398  0.000000  0.043095      2.000000
  0.000000  0.024590  0.043095      2.000000
  0.022199  0.024590  0.043095      4.000000
  0.044398  0.024590  0.043095      4.000000
  0.000000  0.049180  0.043095      2.000000
  0.022199  0.049180  0.043095      4.000000
  0.044398  0.049180  0.043095      4.000000
  0.000000  0.073770  0.043095      1.000000
  0.022199  0.073770  0.043095      2.000000
  0.044398  0.073770  0.043095      2.000000

 TETIRR: Found    360 inequivalent tetrahedra from      720

 SYSTEM =  unknown system
 POSCAR =  sr8 si16

 Startparameter for this run:
   NWRITE =      2    write-flag & timer
   PREC   = normal    normal or accurate (medium, high low for compatibility)
   ISTART =      0    job   : 0-new  1-cont  2-samecut
   ICHARG =      2    charge: 1-file 2-atom 10-const
   ISPIN  =      1    spin polarized calculation?
   LNONCOLLINEAR =      F non collinear calculations
[...]
      8.26254      1.69446      4.73366         0.392315     -0.000000      0.140427
      3.75780      1.69446      1.06741         0.392315     -0.000000     -0.140427
      5.25166      5.08339     10.53473        -0.392315      0.000000      0.140427
      1.78112      1.69446     11.21858        -0.005310      0.000000     -0.545787
      7.22835      5.08339      0.38357         0.005310     -0.000000      0.545787
      2.72362      5.08339      5.41750         0.005310     -0.000000     -0.545787
      6.28585      1.69446      6.18464        -0.005310      0.000000      0.545787
    total drift:                               -0.000367      0.000522      0.000067

  FREE ENERGIE OF THE ION-ELECTRON SYSTEM (eV)
  free  energy   TOTEN  =       -94.71541722 eV

  energy  without entropy=      -94.71541722  energy(sigma->0) =      -94.71541722

[...]

 E-fermi :   3.7360     XC(G=0):  -8.8992     alpha+bet :-10.1825

[...]

 d Force = 0.2594167E+00[ 0.311E+00, 0.207E+00]  d Energy = 0.1167223E+01-0.908E+00
 d Force = 0.1465127E+02[ 0.144E+02, 0.149E+02]  d Ewald  = 0.2268109E+03-0.212E+03

 Steepest descent step on ions:
 trial-energy change:   -1.167223  1 .order   -1.135054   -1.756430   -0.513678
  (g-gl).g = 0.176E+01      g.g   = 0.176E+01  gl.gl    = 0.000E+00
 g(Force)  = 0.214E+00   g(Stress)= 0.154E+01 ortho     = 0.000E+00
 gamma     =   0.00000
 trial     =   1.00000
 opt step  =   1.34205  (harmonic =   1.41334) maximal distance =0.03533637
 next E    =   -95.971778   (d E  =  -1.25636)

[...]

 d Force = 0.1153288E+00[ 0.122E+00, 0.109E+00]  d Energy = 0.8949553E-01 0.258E-01
 d Force = 0.4975040E+01[ 0.493E+01, 0.502E+01]  d Ewald  = 0.8086773E+02-0.759E+02

[...]

 d Force = 0.2953815E+00[-0.285E+00, 0.876E+00]  d Energy = 0.2368817E+00 0.585E-01
 d Force = 0.3213240E+02[ 0.277E+02, 0.366E+02]  d Ewald  = 0.7749519E+02-0.454E+02

 Conjugate gradient step on ions:
 trial-energy change:   -0.236882  1 .order   -0.263453   -0.810056    0.283151
  (g-gl).g = 0.740E+00      g.g   = 0.753E+00  gl.gl    = 0.176E+01
 g(Force)  = 0.674E+00   g(Stress)= 0.792E-01 ortho     = 0.125E-01
 gamma     =   0.42156
 trial     =   1.06841
 opt step  =   0.75967  (harmonic =   0.79168) maximal distance =0.04338284
 next E    =   -96.250570   (d E  =  -0.27843)

[...]

 d Force = 0.3924665E-01[-0.471E-02, 0.832E-01]  d Energy = 0.4134887E-01-0.210E-02
 d Force =-0.8432756E+01[-0.880E+01,-0.806E+01]  d Ewald  =-0.2159890E+02 0.132E+02

[...]

 d Force = 0.7192745E-02[ 0.558E-02, 0.881E-02]  d Energy = 0.8537731E-02-0.134E-02
 d Force =-0.2195713E+00[-0.231E+00,-0.208E+00]  d Ewald  =-0.1020114E+02 0.998E+01

 Conjugate gradient step on ions:
 trial-energy change:   -0.008538  1 .order   -0.008476   -0.012126   -0.004826
  (g-gl).g =-0.176E-01      g.g   = 0.121E-01  gl.gl    = 0.753E+00
 g(Force)  = 0.909E-02   g(Stress)= 0.303E-02 ortho     = 0.309E-02
 gamma     =  -0.02332
 trial     =   1.00666
 opt step  =   1.62203  (harmonic =   1.67228) maximal distance =0.00792882
 next E    =   -96.260393   (d E  =  -0.01003)

[...]

 d Force = 0.2805576E-02[ 0.220E-02, 0.341E-02]  d Energy = 0.1619425E-02 0.119E-02
 d Force =-0.1453012E+00[-0.149E+00,-0.141E+00]  d Ewald  =-0.6232530E+01 0.609E+01

[...]

 d Force = 0.4909067E-02[ 0.402E-02, 0.579E-02]  d Energy = 0.6372206E-02-0.146E-02
 d Force =-0.3891969E+00[-0.397E+00,-0.382E+00]  d Ewald  = 0.3723006E+01-0.411E+01

 Conjugate gradient step on ions:
 trial-energy change:   -0.006372  1 .order   -0.006408   -0.007757   -0.005059
  (g-gl).g = 0.608E-02      g.g   = 0.667E-02  gl.gl    = 0.121E-01
 g(Force)  = 0.334E-02   g(Stress)= 0.333E-02 ortho     = 0.395E-03
 gamma     =   0.50167
 trial     =   1.12973
 opt step  =   4.11658  (harmonic =   3.24832) maximal distance =0.01760369
 next E    =   -96.272920   (d E  =  -0.01240)

 real space projection operators:
  max/ min on nodes  :       1302.50       1193.72

[...]

 eigenvalue-minimisations  :  4576
 total energy-change (2. order) :-0.1344499E-05  (-0.1421990E-06)
 number of electron     143.9999978 magnetization
 augmentation part        0.2084498 magnetization

 Broyden mixing:
  rms(total) = 0.94005E-04    rms(broyden)= 0.94003E-04
  rms(prec ) = 0.11706E-03
  weight for this iteration     100.00

 eigenvalues of (default mixing * dielectric matrix)
  average eigenvalue GAMMA=   1.5799
  2.6580  2.0799  2.0799  1.1767  1.1767  0.9442  0.9442

[...]

--------------------------------------- Iteration      9(   9)  ---------------------------------------

 BZINTS: Fermi energy:  4.107851;144.000000 electrons
         Band energy:***********;  BLOECHL correction:  0.000000

 eigenvalue-minimisations  :  4008
 total energy-change (2. order) : 0.3875539E-07  (-0.3552350E-07)
 number of electron     143.9999978 magnetization
 augmentation part        0.2084498 magnetization

 Free energy of the ion-electron system (eV)
  alpha Z        PSCENC =       384.53084566
  Ewald energy   TEWEN  =     -6735.20684048
  -Hartree energ DENC   =     -1520.45366664
  -exchange      EXHF   =         0.00000000
  -V(xc)+E(xc)   XCENC  =       120.73430076
  PAW double counting   =      4683.04063077    -4314.86642937
  entropy T*S    EENTRO =         0.00000000
  eigenvalues    EBANDS =     -1132.64331971
  atomic energy  EATOM  =      8418.59438694
  Solvation  Ediel_sol  =         0.00000000
  free energy    TOTEN  =       -96.27009207 eV

  energy without entropy =      -96.27009207  energy(sigma->0) =      -96.27009207

 average (electrostatic) potential at core
  the test charge radii are     1.1929  0.9892
  (the norm of the test charge is              1.0000)
       1 -37.9242       2 -37.9242       3 -37.9242       4 -37.9242       5 -38.2004
       6 -38.2004       7 -38.2004       8 -38.2004       9 -85.6205      10 -85.6205
      11 -85.6205      12 -85.6205      13 -85.6205      14 -85.6205      15 -85.6205
      16 -85.6205      17 -85.6860      18 -85.6860      19 -85.6860      20 -85.6860
      21 -85.5577      22 -85.5577      23 -85.5576      24 -85.5576

 E-fermi :   4.1079     XC(G=0):  -9.1102     alpha+bet :-10.6848

[...]

 k-point    36 :       0.4000    0.5000    0.5000
  band No.  band energies     occupation
      1     -31.3739      2.00000
      2     -31.3739      2.00000
      3     -31.3739      2.00000
      4     -31.3739      2.00000
      5     -31.1231      2.00000
      6     -31.1231      2.00000
      7     -31.1222      2.00000
      8     -31.1222      2.00000
      9     -13.5023      2.00000
     10     -13.5023      2.00000
     11     -13.5006      2.00000
     12     -13.5006      2.00000
     13     -13.4864      2.00000
     14     -13.4864      2.00000
     15     -13.4858      2.00000
     16     -13.4858      2.00000
     17     -13.4409      2.00000
     18     -13.4409      2.00000
     19     -13.4396      2.00000
     20     -13.4396      2.00000
     21     -13.2620      2.00000
     22     -13.2620      2.00000
     23     -13.2466      2.00000
     24     -13.2465      2.00000
     25     -13.2251      2.00000
     26     -13.2251      2.00000
     27     -13.2181      2.00000
     28     -13.2181      2.00000
     29     -13.2171      2.00000
     30     -13.2171      2.00000
     31     -13.2121      2.00000
     32     -13.2121      2.00000
     33      -6.8298      2.00000
     34      -6.8298      2.00000
     35      -6.8093      2.00000
     36      -6.8093      2.00000
     37      -2.6435      2.00000
     38      -2.6435      2.00000
     39      -2.5188      2.00000
     40      -2.5188      2.00000
     41      -1.9580      2.00000
     42      -1.9580      2.00000
     43      -1.9351      2.00000
     44      -1.9351      2.00000
     45      -1.7858      2.00000
     46      -1.7858      2.00000
     47      -1.7089      2.00000
     48      -1.7089      2.00000
     49       1.0699      2.00000
     50       1.0699      2.00000
     51       1.2648      2.00000
     52       1.2648      2.00000
     53       1.7630      2.00000
     54       1.7630      2.00000
     55       1.9533      2.00000
     56       1.9533      2.00000
     57       2.3314      2.00000
     58       2.3314      2.00000
     59       2.4270      2.00000
     60       2.4270      2.00000
[...]
     74       4.7995      0.00000
     75       5.0065      0.00000
     76       5.0065      0.00000
     77       5.1597      0.00000
     78       5.1597      0.00000
     79       5.3148      0.00000
     80       5.3148      0.00000
     81       5.9955      0.00000
     82       5.9955      0.00000
     83       6.2385      0.00000
     84       6.2385      0.00000
     85       6.5447      0.00000
     86       6.5447      0.00000
     87       6.7478      0.00000
     88       6.7478      0.00000

 soft charge-density along one line, spin component           1
         0         1         2         3         4         5         6         7         8         9
 total charge-density along one line

------------------------ aborting loop because EDIFF is reached ----------------------------------------

  FORCE on cell =-STRESS in cart. coord.  units (eV):
  Direction    XX          YY          ZZ          XY          YZ          ZX
  Alpha Z   384.53085   384.53085   384.53085
  Ewald   -2259.61801 -2239.16713 -2236.44043    -0.00000    -0.00000    -0.00013
  Hartree   496.23371   514.29645   509.92415    -0.00000    -0.00000    -0.00000
  E(xc)    -505.73954  -505.60732  -505.59859    -0.00000    -0.00000    -0.00000
  Local     176.32801   144.56468   147.63152     0.00000     0.00000     0.00010
  n-local   235.01562   230.82233   231.28628    -0.12680    -0.15205    -0.13681
  augment   -73.45439   -72.23699   -72.48211    -0.00000    -0.00000    -0.00000
  Kinetic  1547.61435  1543.88736  1542.33239     1.13421    -1.20252     0.21046
  Fock        0.00000     0.00000     0.00000     0.00000     0.00000     0.00000
  Total       0.91059     1.09022     1.18405     0.00000     0.00000     0.00000
  in kB       2.38327     2.85341     3.09898     0.00000     0.00000     0.00000

 VOLUME and BASIS-vectors are now :
  energy-cutoff  :      500.00
  volume of cell :      612.15
      direct lattice vectors                 reciprocal lattice vectors
     8.573533920 -0.000000000  0.000000000     0.116638018  0.000000000  0.000000000
    -0.000000000  6.463685710  0.000000000     0.000000000  0.154710493  0.000000000
     0.000000000  0.000000000 11.046404362     0.000000000  0.000000000  0.090527195

  length of vectors
     8.573533920  6.463685710 11.046404362     0.116638018  0.154710493  0.090527195

 FORCES acting on ions
    electron-ion (+dipol)            ewald-force                    non-local-force                 convergence-correction
   0.386E+01 0.966E-04 0.637E+01   -.427E+01 0.152E-04 -.685E+01   0.369E+00 0.424E-18 0.508E+00   0.112E-03 -.244E-08 0.470E-03
   -.386E+01 0.130E-04 -.637E+01   0.427E+01 -.216E-04 0.685E+01   -.369E+00 -.416E-18 -.508E+00   -.112E-03 -.217E-09 -.470E-03
   -.386E+01 0.732E-05 0.637E+01   0.427E+01 -.216E-04 -.685E+01   -.369E+00 -.500E-18 0.508E+00   -.112E-03 -.330E-09 0.470E-03
   0.386E+01 0.910E-04 -.637E+01   -.427E+01 0.152E-04 0.685E+01   0.369E+00 0.468E-18 -.508E+00   0.112E-03 -.255E-08 -.470E-03
   -.226E+02 0.110E-04 -.371E+01   0.219E+02 -.197E-04 0.395E+01   0.721E+00 0.158E-17 -.256E+00   -.230E-04 0.268E-08 0.674E-04
   0.226E+02 0.935E-04 0.371E+01   -.219E+02 0.188E-04 -.395E+01   -.721E+00 0.167E-17 0.256E+00   0.230E-04 -.125E-09 -.674E-04
   0.226E+02 0.925E-04 -.371E+01   -.219E+02 0.188E-04 0.395E+01   -.721E+00 -.444E-19 -.256E+00   0.230E-04 -.534E-09 0.673E-04
   -.226E+02 0.997E-05 0.371E+01   0.219E+02 -.197E-04 -.395E+01   0.721E+00 -.128E-18 0.256E+00   -.230E-04 0.227E-08 -.673E-04
   0.841E+01 0.239E+02 -.141E+02   -.898E+01 -.256E+02 0.151E+02   0.523E+00 0.161E+01 -.887E+00   -.447E-04 -.120E-03 0.379E-04
   -.841E+01 -.239E+02 0.141E+02   0.898E+01 0.256E+02 -.151E+02   -.523E+00 -.161E+01 0.887E+00   0.447E-04 0.120E-03 -.379E-04
   -.841E+01 -.239E+02 -.141E+02   0.898E+01 0.256E+02 0.151E+02   -.523E+00 -.161E+01 -.887E+00   0.447E-04 0.120E-03 0.380E-04
   0.841E+01 0.239E+02 0.141E+02   -.898E+01 -.256E+02 -.151E+02   0.523E+00 0.161E+01 0.887E+00   -.447E-04 -.120E-03 -.380E-04
   -.841E+01 0.239E+02 0.141E+02   0.898E+01 -.256E+02 -.151E+02   -.523E+00 0.161E+01 0.887E+00   0.447E-04 -.120E-03 -.379E-04
   0.841E+01 -.239E+02 -.141E+02   -.898E+01 0.256E+02 0.151E+02   0.523E+00 -.161E+01 -.887E+00   -.447E-04 0.120E-03 0.379E-04
   0.841E+01 -.239E+02 0.141E+02   -.898E+01 0.256E+02 -.151E+02   0.523E+00 -.161E+01 0.887E+00   -.447E-04 0.120E-03 -.380E-04
   -.841E+01 0.239E+02 -.141E+02   0.898E+01 -.256E+02 0.151E+02   -.523E+00 0.161E+01 -.887E+00   0.447E-04 -.120E-03 0.380E-04
   0.379E+02 -.106E-04 0.109E+01   -.403E+02 -.871E-05 -.188E+01   0.223E+01 -.318E-17 0.696E+00   -.380E-04 0.114E-09 0.442E-04
   -.379E+02 -.243E-05 -.109E+01   0.403E+02 0.885E-05 0.188E+01   -.223E+01 0.667E-18 -.696E+00   0.380E-04 -.118E-09 -.442E-04
   -.379E+02 0.863E-05 0.109E+01   0.403E+02 0.885E-05 -.188E+01   -.223E+01 -.107E-16 0.696E+00   0.380E-04 -.151E-09 0.442E-04
   0.379E+02 0.418E-06 -.109E+01   -.403E+02 -.871E-05 0.188E+01   0.223E+01 0.258E-17 -.696E+00   -.380E-04 0.803E-10 -.442E-04
   0.493E+01 -.473E-05 0.274E+02   -.501E+01 0.955E-05 -.293E+02   0.147E+00 0.614E-19 0.188E+01   -.952E-04 -.679E-09 -.108E-03
   -.493E+01 -.118E-04 -.274E+02   0.501E+01 -.101E-04 0.293E+02   -.147E+00 -.452E-19 -.188E+01   0.952E-04 0.313E-10 0.108E-03
   -.493E+01 0.154E-06 0.274E+02   0.501E+01 -.101E-04 -.293E+02   -.147E+00 0.660E-17 0.188E+01   0.952E-04 0.288E-09 -.108E-03
   0.493E+01 0.724E-05 -.274E+02   -.501E+01 0.955E-05 0.293E+02   0.147E+00 -.507E-17 -.188E+01   -.952E-04 -.423E-09 0.108E-03
   -.336E-03 0.469E-03 0.525E-04   0.222E-13 0.424E-13 0.213E-13   0.000E+00 0.435E-15 0.222E-15   0.422E-08 -.865E-09 0.280E-10

 POSITION                                       TOTAL-FORCE (eV/Angst)
      0.13960      1.61592      7.66678        -0.042612     -0.000000      0.034472
      8.43393      4.84776      3.37962         0.042612     -0.000000     -0.034472
      4.14716      4.84776      2.14358         0.042612     -0.000000      0.034472
      4.42637      1.61592      8.90282        -0.042612     -0.000000     -0.034472
      1.35679      4.84776     10.01881         0.010407      0.000000     -0.014941
      7.21675      1.61592      1.02759        -0.010407     -0.000000      0.014941
      2.92998      1.61592      4.49561        -0.010407      0.000000     -0.014941
      5.64355      4.84776      6.55079         0.010407     -0.000000      0.014941
      1.66766      0.41097      1.62669        -0.054306     -0.091456      0.047841
      6.90588      6.05271      9.41972         0.054306      0.091456     -0.047841
      2.61911      6.05271      7.14989         0.054306      0.091456      0.047841
      5.95443      0.41097      3.89652        -0.054306     -0.091456     -0.047841
      6.90588      3.64281      9.41972         0.054306     -0.091456     -0.047841
      1.66766      2.82087      1.62669        -0.054306      0.091456      0.047841
      5.95443      2.82087      3.89652        -0.054306      0.091456     -0.047841
      2.61911      3.64281      7.14989         0.054306     -0.091456      0.047841
      0.62393      4.84776      6.52846        -0.164578      0.000000     -0.095570
      7.94961      1.61592      4.51794         0.164578     -0.000000      0.095570
      3.66284      1.61592      1.00526         0.164578     -0.000000     -0.095570
      4.91069      4.84776     10.04114        -0.164578      0.000000      0.095570
      1.68276      1.61592     10.59362         0.066766     -0.000000     -0.117464
      6.89077      4.84776      0.45278        -0.066766      0.000000      0.117464
      2.60400      4.84776      5.07042        -0.066766      0.000000     -0.117464
      5.96953      1.61592      5.97598         0.066766     -0.000000      0.117464
    total drift:                               -0.000336      0.000469      0.000053

  FREE ENERGIE OF THE ION-ELECTRON SYSTEM (eV)
  free  energy   TOTEN  =       -96.27009207 eV

  energy  without entropy=      -96.27009207  energy(sigma->0) =      -96.27009207

 d Force = 0.4311031E-02[-0.200E-02, 0.106E-01]  d Energy = 0.3196528E-02 0.111E-02
 d Force =-0.1101733E+01[-0.115E+01,-0.105E+01]  d Ewald  = 0.9808630E+01-0.109E+02

 reached required accuracy - stopping structural energy minimisation
 writing wavefunctions
 BZINTS: Fermi energy:  4.107851;144.000000 electrons
         Band energy:***********;  BLOECHL correction:  0.000000