 vasp.5.4.4.18Apr17-6-g9f103f2a35 (build Nov 21 2017 15:30:27) complex

 executed on             LinuxIFC date 2020.08.19  02:27:23

 INCAR:
 POTCAR:   PAW_PBE Ba_sv 06Sep2000
 POTCAR:   PAW_PBE Si 05Jan2001

 POTCAR:   PAW_PBE Ba_sv 06Sep2000
   VRHFIN =Ba: 5s5p6s

   TITEL  = PAW_PBE Ba_sv 06Sep2000
   POMASS =  137.327; ZVAL   =   10.000    mass and valenz
   ENMAX  =  187.210; ENMIN  =  140.408 eV
   QCUT   =   -3.709; QGAM   =    7.419    optimization parameters

   Description
     l     E      TYP  RCUT    TYP  RCUT
     0   .000     23  2.800
     0   .000     23  2.800
     1   .000     23  2.700
     1  2.000     23  2.700
     2   .000     23  2.700
     2   .000     23  2.700

 POTCAR:   PAW_PBE Si 05Jan2001
   VRHFIN =Si: s2p2

   TITEL  = PAW_PBE Si 05Jan2001
   POMASS =   28.085; ZVAL   =    4.000    mass and valenz
   ENMAX  =  245.345; ENMIN  =  184.009 eV
   QCUT   =   -4.246; QGAM   =    8.493    optimization parameters

   Description
     l     E      TYP  RCUT    TYP  RCUT
     0   .000     23  1.900
     0   .000     23  1.900
     1   .000     23  1.900
     1   .000     23  1.900
     2   .000      7  1.900

 Optimization of the real space projectors (new method)

 maximal supplied QI-value         = 13.42
 optimisation between [QCUT,QGAM] = [ 11.40, 22.81] = [ 36.42,145.68] Ry
 Optimized for a Real-space Cutoff    1.56 Angstroem

   l    n(q)    QCUT    max X(q) W(low)/X(q) W(high)/X(q)  e(spline)
   0     11    11.404     7.198    0.14E-04    0.26E-04    0.99E-07
   0     11    11.404    15.603    0.29E-04    0.72E-04    0.44E-06
   1     10    11.404     3.746    0.20E-04    0.24E-04    0.43E-07
   1     10    11.404     4.362    0.22E-03    0.97E-04    0.22E-06
   2     10    11.404     5.782    0.83E-04    0.62E-05    0.27E-06
   2     10    11.404    65.505    0.42E-03    0.31E-04    0.12E-05
 Optimization of the real space projectors (new method)

 maximal supplied QI-value         = 19.84
 optimisation between [QCUT,QGAM] = [ 11.31, 22.82] = [ 35.82,145.81] Ry
 Optimized for a Real-space Cutoff    1.16 Angstroem

   l    n(q)    QCUT    max X(q) W(low)/X(q) W(high)/X(q)  e(spline)
   0      8    11.310     8.708    0.14E-04    0.11E-04    0.43E-08
   0      8    11.310   106.241    0.27E-03    0.30E-03    0.38E-07
   1      7    11.310     5.901    0.82E-05    0.48E-04    0.19E-07
   1      7    11.310    73.241    0.27E-03    0.27E-03    0.74E-07
 PAW_PBE Ba_sv 06Sep2000                :
 PAW_PBE Si 05Jan2001                   :

 POSCAR: ba8 si16
  positions in direct lattice
  velocities in cartesian coordinates
 exchange correlation table for  LEXCH =        8
   RHO(1)=    0.500       N(1)  =     2000
   RHO(2)=  100.500       N(2)  =     4000

 ion  position               nearest neighbor table
   1  0.015  0.250  0.692-  24 3.36  18 3.37  13 3.40  10 3.40  16 3.42  11 3.42  21 3.55  17 3.60
                            17 3.60   5 4.37   5 4.37   7 4.38   4 4.66   4 4.66
   2  0.985  0.750  0.308-  23 3.36  17 3.37   9 3.40  14 3.40  12 3.42  15 3.42  22 3.55  18 3.60
                            18 3.60   6 4.37   6 4.37   8 4.38   3 4.66   3 4.66
   3  0.485  0.750  0.192-  22 3.36  20 3.37  12 3.40  15 3.40   9 3.42  14 3.42  23 3.55  19 3.60
                            19 3.60   7 4.37   7 4.37   5 4.38   2 4.66   2 4.66
   4  0.515  0.250  0.808-  21 3.36  19 3.37  16 3.40  11 3.40  13 3.42  10 3.42  24 3.55  20 3.60
                            20 3.60   8 4.37   8 4.37   6 4.38   1 4.66   1 4.66
   5  0.159  0.750  0.907-  10 3.43  13 3.43  21 3.44  21 3.44  11 3.48  16 3.48  22 3.50   9 3.52
                            14 3.52  17 3.69  20 3.77   1 4.37   1 4.37   3 4.38
   6  0.841  0.250  0.093-  14 3.43   9 3.43  22 3.44  22 3.44  15 3.48  12 3.48  21 3.50  13 3.52
                            10 3.52  18 3.69  19 3.77   2 4.37   2 4.37   4 4.38
   7  0.341  0.250  0.407-  15 3.43  12 3.43  23 3.44  23 3.44  14 3.48   9 3.48  24 3.50  16 3.52
                            11 3.52  19 3.69  18 3.77   3 4.37   3 4.37   1 4.38
   8  0.659  0.750  0.593-  11 3.43  16 3.43  24 3.44  24 3.44  10 3.48  13 3.48  23 3.50  12 3.52
                            15 3.52  20 3.69  17 3.77   4 4.37   4 4.37   2 4.38
   9  0.194  0.071  0.147-  14 2.41  21 2.41  19 2.42   2 3.40   3 3.42   6 3.43   7 3.48   5 3.52

  10  0.806  0.929  0.853-  13 2.41  22 2.41  20 2.42   1 3.40   4 3.42   5 3.43   8 3.48   6 3.52

[...]

  24  0.697  0.250  0.534-  15 2.41  12 2.41  18 2.45   1 3.36   8 3.44   8 3.44   7 3.50   4 3.55

  LATTYP: Found a simple orthorhombic cell.
 ALAT       =     6.7201943514
 B/A-ratio  =     1.3282452928
 C/A-ratio  =     1.7117340960

  Lattice vectors:

 A1 = (   0.0000000000,  -6.7201943514,   0.0000000000)
 A2 = (  -8.9260665141,   0.0000000000,   0.0000000000)
 A3 = (   0.0000000000,   0.0000000000, -11.5031858029)

Analysis of symmetry for initial positions (statically):
 Subroutine PRICEL returns:
 Original cell was already a primitive cell.

 Routine SETGRP: Setting up the symmetry group for a
 simple orthorhombic supercell.

 Subroutine GETGRP returns: Found  8 space group operations
 (whereof  2 operations were pure point group operations)
 out of a pool of  8 trial point group operations.

The static configuration has the point symmetry S_2 .
 The point group associated with its full space group is D_2h.

Analysis of symmetry for dynamics (positions and initial velocities):
 Subroutine PRICEL returns:
 Original cell was already a primitive cell.

 Routine SETGRP: Setting up the symmetry group for a
 simple orthorhombic supercell.

 Subroutine GETGRP returns: Found  8 space group operations
 (whereof  2 operations were pure point group operations)
 out of a pool of  8 trial point group operations.

The dynamic configuration has the point symmetry S_2 .
 The point group associated with its full space group is D_2h.

 Subroutine INISYM returns: Found  8 space group operations
 (whereof  2 operations are pure point group operations),
 and found     1 'primitive' translations

 KPOINTS: Automatically generated mesh
  k-points in reciprocal lattice
Space group operators:
 irot       det(A)        alpha          n_x          n_y          n_z        tau_x        tau_y        tau_z
    1     1.000000     0.000000     1.000000     0.000000     0.000000     0.000000     0.000000     0.000000
    2    -1.000000     0.000000     1.000000     0.000000     0.000000     0.000000     0.000000     0.000000
    3     1.000000   180.000000     0.000000     0.000000     1.000000    -0.500000     0.000000    -0.500000
    4    -1.000000   180.000000     0.000000     0.000000     1.000000    -0.500000     0.000000    -0.500000
    5     1.000000   180.000000     1.000000     0.000000     0.000000    -0.500000    -0.500000    -0.500000
    6    -1.000000   180.000000     1.000000     0.000000     0.000000    -0.500000    -0.500000    -0.500000
    7     1.000000   180.000000     0.000000     1.000000     0.000000    -0.000000    -0.500000    -0.000000
    8    -1.000000   180.000000     0.000000     1.000000     0.000000     0.000000    -0.500000     0.000000

 Subroutine IBZKPT_HF returns following result:

 Found     48 k-points in 1st BZ
 the following     48 k-points will be used (e.g. in the exchange kernel)
 Following reciprocal coordinates:   # in IRBZ
  0.000000  0.000000  0.000000    0.02083333   1 t-inv F
  0.166667  0.000000  0.000000    0.02083333   2 t-inv F
  0.333333  0.000000  0.000000    0.02083333   3 t-inv F
  0.500000  0.000000  0.000000    0.02083333   4 t-inv F
  0.000000  0.125000  0.000000    0.02083333   5 t-inv F
  0.166667  0.125000  0.000000    0.02083333   6 t-inv F
  0.333333  0.125000  0.000000    0.02083333   7 t-inv F
  0.500000  0.125000  0.000000    0.02083333   8 t-inv F
  0.000000  0.250000  0.000000    0.02083333   9 t-inv F
  0.166667  0.250000  0.000000    0.02083333  10 t-inv F
  0.333333  0.250000  0.000000    0.02083333  11 t-inv F
  0.500000  0.250000  0.000000    0.02083333  12 t-inv F
  0.000000  0.375000  0.000000    0.02083333  13 t-inv F
  0.166667  0.375000  0.000000    0.02083333  14 t-inv F
  0.333333  0.375000  0.000000    0.02083333  15 t-inv F
  0.500000  0.375000  0.000000    0.02083333  16 t-inv F
  0.000000  0.500000  0.000000    0.02083333  17 t-inv F
  0.166667  0.500000  0.000000    0.02083333  18 t-inv F
  0.333333  0.500000  0.000000    0.02083333  19 t-inv F
  0.500000  0.500000  0.000000    0.02083333  20 t-inv F
 -0.166667  0.000000  0.000000    0.02083333   2 t-inv F
 -0.333333  0.000000  0.000000    0.02083333   3 t-inv F
  0.000000 -0.125000  0.000000    0.02083333   5 t-inv F
 -0.166667 -0.125000  0.000000    0.02083333   6 t-inv F
  0.166667 -0.125000  0.000000    0.02083333   6 t-inv F
 -0.166667  0.125000  0.000000    0.02083333   6 t-inv F
 -0.333333 -0.125000  0.000000    0.02083333   7 t-inv F
  0.333333 -0.125000  0.000000    0.02083333   7 t-inv F
 -0.333333  0.125000  0.000000    0.02083333   7 t-inv F
 -0.500000 -0.125000  0.000000    0.02083333   8 t-inv F
  0.000000 -0.250000  0.000000    0.02083333   9 t-inv F
 -0.166667 -0.250000  0.000000    0.02083333  10 t-inv F
  0.166667 -0.250000  0.000000    0.02083333  10 t-inv F
 -0.166667  0.250000  0.000000    0.02083333  10 t-inv F
 -0.333333 -0.250000  0.000000    0.02083333  11 t-inv F
  0.333333 -0.250000  0.000000    0.02083333  11 t-inv F
 -0.333333  0.250000  0.000000    0.02083333  11 t-inv F
 -0.500000 -0.250000  0.000000    0.02083333  12 t-inv F
  0.000000 -0.375000  0.000000    0.02083333  13 t-inv F
 -0.166667 -0.375000  0.000000    0.02083333  14 t-inv F
  0.166667 -0.375000  0.000000    0.02083333  14 t-inv F
 -0.166667  0.375000  0.000000    0.02083333  14 t-inv F
 -0.333333 -0.375000  0.000000    0.02083333  15 t-inv F
  0.333333 -0.375000  0.000000    0.02083333  15 t-inv F
 -0.333333  0.375000  0.000000    0.02083333  15 t-inv F
 -0.500000 -0.375000  0.000000    0.02083333  16 t-inv F
 -0.166667 -0.500000  0.000000    0.02083333  18 t-inv F
 -0.333333 -0.500000  0.000000    0.02083333  19 t-inv F

 SYSTEM =  unknown system
 POSCAR =  ba8 si16

 Startparameter for this run:
   NWRITE =      2    write-flag & timer
   PREC   = normal    normal or accurate (medium, high low for compatibility)
   ISTART =      1    job   : 0-new  1-cont  2-samecut
   ICHARG =      0    charge: 1-file 2-atom 10-const
   ISPIN  =      1    spin polarized calculation?
   LNONCOLLINEAR =      F non collinear calculations
   LSORBIT =      F    spin-orbit coupling
   INIWAV =      1    electr: 0-lowe 1-rand  2-diag
   LASPH  =      F    aspherical Exc in radial PAW
   METAGGA=      F    non-selfconsistent MetaGGA calc.

 Electronic Relaxation 1
   ENCUT  =  500.0 eV  36.75 Ry    6.06 a.u.  16.27 12.25 20.97*2*pi/ulx,y,z
   ENINI  =  500.0     initial cutoff
   ENAUG  =  351.2 eV  augmentation charge cutoff
   NELM   =    300;   NELMIN=  4; NELMDL=  0     # of ELM steps
   EDIFF  = 0.1E-05   stopping-criterion for ELM
   LREAL  =      T    real-space projection
   NLSPLINE    = F    spline interpolate recip. space projectors
   LCOMPAT=      F    compatible to vasp.4.4
   GGA_COMPAT  = T    GGA compatible to vasp.4.4-vasp.4.6
[...]
 for species   2 augmentation radius   1.055 (default was   0.989)
       energy cutoff for augmentation   2000.0

 real space projection operators:
  max/ min on nodes  :        352.81        178.03

 Maximum index for augmentation-charges in exchange          262
  SETUP_FOCK is finished

 Broyden mixing: mesh for mixing (old mesh)
   NGX = 33   NGY = 25   NGZ = 41
  (NGX  =100   NGY  = 80   NGZ  =128)
  gives a total of  33825 points

 charge density for first step will be calculated from the start-wavefunctions

 Maximum index for non-local projection operator          270
 Maximum index for augmentation-charges          613 (set IRDMAX)

 initial charge from wavefunction
 First call to EWALD:  gamma=   0.201
 Maximum number of real-space cells 3x 3x 2
 Maximum number of reciprocal cells 3x 2x 3

--------------------------------------- Iteration      1(   1)  ---------------------------------------

 eigenvalue-minimisations  :     0
 total energy-change (2. order) :-0.8408206E+02  (-0.2999082E+02)
 number of electron     143.9999995 magnetization
 augmentation part      -17.4533599 magnetization

 Free energy of the ion-electron system (eV)
  alpha Z        PSCENC =       466.41095114
  Ewald energy   TEWEN  =     -6439.99361400
  -Hartree energ DENC   =      -905.02706850
  -exchange      EXHF   =       236.36695607
  -V(xc)+E(xc)   XCENC  =        36.55171229
  PAW double counting   =      3859.04504884    -3629.20979371
  entropy T*S    EENTRO =        -0.00000000
  eigenvalues    EBANDS =      -926.56726070
  atomic energy  EATOM  =      7218.34100571
  free energy    TOTEN  =       -84.08206287 eV

  energy without entropy =      -84.08206287  energy(sigma->0) =      -84.08206287
  exchange ACFDT corr.  =        -0.00000000  see jH, gK, PRB 81, 115126

[...]

--------------------------------------- Iteration      1(  40)  ---------------------------------------

 eigenvalue-minimisations  :     0
 total energy-change (2. order) :-0.8507268E-06  (-0.9469718E-06)
 number of electron     143.9999995 magnetization
 augmentation part      -17.2657190 magnetization

 Free energy of the ion-electron system (eV)
  alpha Z        PSCENC =       466.41095114
  Ewald energy   TEWEN  =     -6439.99361400
  -Hartree energ DENC   =      -897.28463148
  -exchange      EXHF   =       241.19232320
  -V(xc)+E(xc)   XCENC  =        36.54185408
  PAW double counting   =      3851.28635583    -3622.13912313
  entropy T*S    EENTRO =        -0.00000000
  eigenvalues    EBANDS =      -986.41135775
  atomic energy  EATOM  =      7218.34100571
  free energy    TOTEN  =      -132.05623400 eV

  energy without entropy =     -132.05623400  energy(sigma->0) =     -132.05623400
  exchange ACFDT corr.  =        -0.00000000  see jH, gK, PRB 81, 115126

  average scaling for gradient   1.1815

 average (electrostatic) potential at core
  the test charge radii are     1.2192  0.9892
  (the norm of the test charge is              1.0000)
       1 -32.6092       2 -32.6092       3 -32.6092       4 -32.6092       5 -32.7595
       6 -32.7595       7 -32.7595       8 -32.7595       9 -81.2633      10 -81.2633
      11 -81.2633      12 -81.2633      13 -81.2633      14 -81.2633      15 -81.2633
      16 -81.2633      17 -81.3684      18 -81.3684      19 -81.3684      20 -81.3684
      21 -81.2472      22 -81.2472      23 -81.2472      24 -81.2472

 E-fermi :   3.3902     XC(G=0):  -7.4450     alpha+bet :-10.5212

 k-point     1 :       0.0000    0.0000    0.0000
  band No.  band energies     occupation
      1     -26.3073      2.00000
      2     -26.3019      2.00000
      3     -26.2972      2.00000
      4     -26.2967      2.00000
      5     -26.1875      2.00000
      6     -26.1852      2.00000
      7     -26.1785      2.00000
      8     -26.1762      2.00000
      9     -10.9132      2.00000
     10     -10.8761      2.00000
     11     -10.8319      2.00000
     12     -10.8142      2.00000
     13     -10.7412      2.00000
     14     -10.7003      2.00000
     15     -10.6928      2.00000
     16     -10.6836      2.00000
     17     -10.6832      2.00000
     18     -10.6605      2.00000
     19     -10.6356      2.00000
     20     -10.6300      2.00000
     21     -10.5801      2.00000
     22     -10.5413      2.00000
     23     -10.4942      2.00000
     24     -10.4874      2.00000
     25     -10.4855      2.00000
     26     -10.4671      2.00000
     27     -10.4500      2.00000
     28     -10.4441      2.00000
     29     -10.4355      2.00000
     30     -10.4225      2.00000
     31     -10.4201      2.00000
     32     -10.4021      2.00000
     33      -8.7117      2.00000
     34      -8.3823      2.00000
     35      -8.3351      2.00000
     36      -8.3003      2.00000
     37      -3.5921      2.00000
     38      -3.5111      2.00000
     39      -3.1877      2.00000
     40      -3.1728      2.00000
     41      -3.0790      2.00000
     42      -3.0684      2.00000
     43      -3.0671      2.00000
     44      -2.9990      2.00000
     45      -2.9303      2.00000
     46      -2.8871      2.00000
     47      -2.8262      2.00000
     48      -2.6271      2.00000
     49      -0.6342      2.00000
     50       0.5581      2.00000
     51       0.7155      2.00000
     52       0.7708      2.00000
     53       0.8104      2.00000
     54       1.1185      2.00000
     55       1.3447      2.00000
     56       1.4464      2.00000
     57       1.4670      2.00000
     58       1.5013      2.00000
     59       1.5868      2.00000
     60       1.7763      2.00000
[...]
     74       4.8153      0.00000
     75       5.1976      0.00000
     76       5.3605      0.00000
     77       5.4186      0.00000
     78       5.7729      0.00000
     79       5.9821      0.00000
     80       6.1806      0.00000
     81       6.2671      0.00000
     82       6.4584      0.00000
     83       6.5634      0.00000
     84       6.5674      0.00000
     85       6.6315      0.00000
     86       6.6590      0.00000
     87       6.6723      0.00000
     88       7.0834      0.00000

[...]

 k-point    20 :       0.5000    0.5000    0.0000
  band No.  band energies     occupation
      1     -26.2994      2.00000
      2     -26.2994      2.00000
      3     -26.2994      2.00000
      4     -26.2994      2.00000
      5     -26.1830      2.00000
      6     -26.1830      2.00000
      7     -26.1830      2.00000
      8     -26.1830      2.00000
      9     -10.9285      2.00000
     10     -10.9285      2.00000
     11     -10.9285      2.00000
     12     -10.9285      2.00000
     13     -10.7624      2.00000
     14     -10.7624      2.00000
     15     -10.7624      2.00000
     16     -10.7624      2.00000
     17     -10.6005      2.00000
     18     -10.6005      2.00000
     19     -10.6005      2.00000
     20     -10.6005      2.00000
     21     -10.5298      2.00000
     22     -10.5298      2.00000
     23     -10.5298      2.00000
     24     -10.5298      2.00000
     25     -10.4584      2.00000
     26     -10.4584      2.00000
     27     -10.4584      2.00000
     28     -10.4584      2.00000
     29     -10.4080      2.00000
     30     -10.4080      2.00000
     31     -10.4080      2.00000
     32     -10.4080      2.00000
     33      -8.3183      2.00000
     34      -8.3183      2.00000
     35      -8.3183      2.00000
     36      -8.3183      2.00000
     37      -3.4105      2.00000
     38      -3.4105      2.00000
     39      -3.4105      2.00000
     40      -3.4105      2.00000
     41      -3.0713      2.00000
     42      -3.0713      2.00000
     43      -3.0713      2.00000
     44      -3.0713      2.00000
     45      -2.9303      2.00000
     46      -2.9303      2.00000
     47      -2.9303      2.00000
     48      -2.9302      2.00000
     49       0.8621      2.00000
     50       0.8621      2.00000
     51       0.8621      2.00000
     52       0.8621      2.00000
     53       1.3405      2.00000
     54       1.3405      2.00000
     55       1.3405      2.00000
     56       1.3405      2.00000
     57       1.6438      2.00000
     58       1.6438      2.00000
     59       1.6438      2.00000
     60       1.6438      2.00000
[...]
     74       4.8630      0.00000
     75       4.8630      0.00000
     76       4.8630      0.00000
     77       5.4323      0.00000
     78       5.4323      0.00000
     79       5.4323      0.00000
     80       5.4323      0.00000
     81       5.7401      0.00000
     82       5.7401      0.00000
     83       5.7451      0.00000
     84       5.7451      0.00000
     85       6.2591      0.00000
     86       6.2592      0.00000
     87       6.2786      0.00000
     88       6.2790      0.00000

 soft charge-density along one line, spin component           1
         0         1         2         3         4         5         6         7         8         9
 total charge-density along one line

------------------------ aborting loop because EDIFF is reached ----------------------------------------

 total charge

# of ion       s       p       d       tot
    1        2.011   5.604   0.292   7.908
    2        2.011   5.604   0.292   7.908
    3        2.011   5.604   0.292   7.908
    4        2.011   5.604   0.292   7.908
    5        2.005   5.597   0.285   7.887
    6        2.005   5.597   0.285   7.887
    7        2.005   5.597   0.285   7.887
    8        2.005   5.597   0.285   7.887
    9        0.808   0.876   0.000   1.684
   10        0.808   0.876   0.000   1.684
   11        0.808   0.876   0.000   1.684
   12        0.808   0.876   0.000   1.684
   13        0.808   0.875   0.000   1.683
   14        0.808   0.875   0.000   1.683
   15        0.808   0.875   0.000   1.683
   16        0.808   0.875   0.000   1.683
   17        0.822   0.826   0.000   1.648
   18        0.822   0.826   0.000   1.648
   19        0.822   0.826   0.000   1.648
   20        0.822   0.826   0.000   1.648
   21        0.806   0.873   0.000   1.678
   22        0.806   0.873   0.000   1.678
   23        0.806   0.873   0.000   1.678
   24        0.806   0.873   0.000   1.678
tot         29.038  58.600   2.309  89.948

 VOLUME and BASIS-vectors are now :
  energy-cutoff  :      500.00
  volume of cell :      690.02
      direct lattice vectors                 reciprocal lattice vectors
     8.926066514  0.000000000  0.000000000     0.112031430  0.000000000  0.000000000
     0.000000000  6.720194351  0.000000000     0.000000000  0.148805220  0.000000000
     0.000000000  0.000000000 11.503185803     0.000000000  0.000000000  0.086932439

  length of vectors
     8.926066514  6.720194351 11.503185803     0.112031430  0.148805220  0.086932439

 FORCES acting on ions:
    Electron-Ion                     Ewald-Force                    Non-Local-Force
   0.270E+01 0.277E-04 0.182E+01   -.306E+01 0.141E-04 -.213E+01   0.301E+00 -.171E-18 0.255E+00
   -.270E+01 -.379E-04 -.182E+01   0.306E+01 -.201E-04 0.213E+01   -.301E+00 -.162E-18 -.255E+00
   -.270E+01 0.230E-04 0.182E+01   0.306E+01 -.201E-04 -.213E+01   -.301E+00 -.273E-19 0.255E+00
   0.270E+01 -.331E-04 -.182E+01   -.306E+01 0.141E-04 0.213E+01   0.301E+00 0.160E-18 -.255E+00
   -.225E+02 0.135E-04 -.620E+01   0.215E+02 -.178E-04 0.619E+01   0.699E+00 -.820E-19 -.459E-01
   0.225E+02 -.251E-04 0.620E+01   -.215E+02 0.172E-04 -.619E+01   -.699E+00 -.747E-18 0.459E-01
   0.225E+02 -.138E-04 -.620E+01   -.215E+02 0.172E-04 0.619E+01   -.699E+00 0.631E-18 -.459E-01
   -.225E+02 0.429E-06 0.620E+01   0.215E+02 -.178E-04 -.619E+01   0.699E+00 -.500E-18 0.459E-01
   0.103E+02 0.304E+02 -.166E+02   -.108E+02 -.319E+02 0.174E+02   0.605E+00 0.172E+01 -.976E+00
   -.103E+02 -.304E+02 0.166E+02   0.108E+02 0.319E+02 -.174E+02   -.605E+00 -.172E+01 0.976E+00
   -.103E+02 -.304E+02 -.166E+02   0.108E+02 0.319E+02 0.174E+02   -.605E+00 -.172E+01 -.976E+00
   0.103E+02 0.304E+02 0.166E+02   -.108E+02 -.319E+02 -.174E+02   0.605E+00 0.172E+01 0.976E+00
   -.103E+02 0.304E+02 0.166E+02   0.108E+02 -.319E+02 -.174E+02   -.605E+00 0.172E+01 0.976E+00
   0.103E+02 -.304E+02 -.166E+02   -.108E+02 0.319E+02 0.174E+02   0.605E+00 -.172E+01 -.976E+00
   0.103E+02 -.304E+02 0.166E+02   -.108E+02 0.319E+02 -.174E+02   0.605E+00 -.172E+01 0.976E+00
   -.103E+02 0.304E+02 -.166E+02   0.108E+02 -.319E+02 0.174E+02   -.605E+00 0.172E+01 -.976E+00
   0.432E+02 -.456E-06 0.830E+00   -.452E+02 -.786E-05 -.175E+01   0.232E+01 -.688E-17 0.936E+00
   -.432E+02 0.121E-04 -.830E+00   0.452E+02 0.815E-05 0.175E+01   -.232E+01 -.706E-17 -.936E+00
   -.432E+02 -.374E-04 0.830E+00   0.452E+02 0.815E-05 -.175E+01   -.232E+01 0.750E-17 0.936E+00
   0.432E+02 0.263E-04 -.830E+00   -.452E+02 -.786E-05 0.175E+01   0.232E+01 -.649E-17 -.936E+00
   0.767E+01 -.317E-04 0.347E+02   -.781E+01 0.872E-05 -.365E+02   0.161E+00 -.237E-18 0.207E+01
   -.767E+01 0.265E-04 -.347E+02   0.781E+01 -.910E-05 0.365E+02   -.161E+00 -.298E-19 -.207E+01
   -.767E+01 -.189E-04 0.347E+02   0.781E+01 -.910E-05 -.365E+02   -.161E+00 0.372E-18 0.207E+01
   0.767E+01 0.237E-04 -.347E+02   -.781E+01 0.872E-05 0.365E+02   0.161E+00 0.103E-18 -.207E+01
   0.173E-05 -.325E-04 -.702E-03   -.888E-15 0.205E-13 -.213E-13   -.444E-15 -.235E-15 -.444E-15

 POSITION                                       TOTAL-FORCE (eV/Angst)
      0.13443      1.68005      7.95495         0.016081      0.000000      0.054718
      8.79164      5.04015      3.54823        -0.016081      0.000000     -0.054718
      4.32861      5.04015      2.20336        -0.016081      0.000000      0.054718
      4.59746      1.68005      9.29983         0.016081     -0.000000     -0.054718
      1.42106      5.04015     10.42918        -0.061445      0.000000     -0.052325
      7.50501      1.68005      1.07400         0.061445     -0.000000      0.052325
      3.04198      1.68005      4.67759         0.061445     -0.000000     -0.052325
      5.88409      5.04015      6.82560        -0.061445     -0.000000      0.052325
      1.72847      0.47478      1.69367         0.155366      0.375442     -0.255736
      7.19759      6.24542      9.80952        -0.155366     -0.375442      0.255736
      2.73456      6.24542      7.44526        -0.155366     -0.375442     -0.255736
      6.19151      0.47478      4.05792         0.155366      0.375442      0.255736
      7.19759      3.83487      9.80952        -0.155366      0.375442      0.255736
      1.72847      2.88532      1.69367         0.155366     -0.375442     -0.255736
      6.19151      2.88532      4.05792         0.155366     -0.375442      0.255736
      2.73456      3.83487      7.44526        -0.155366      0.375442     -0.255736
      0.72939      5.04015      6.80749         0.473654      0.000000      0.014805
      8.19668      1.68005      4.69569        -0.473654     -0.000000     -0.014805
      3.73365      1.68005      1.05590        -0.473654     -0.000000      0.014805
      5.19242      5.04015     10.44729         0.473654      0.000000     -0.014805
      1.75973      1.68005     11.10715         0.075511     -0.000000      0.422534
      7.16633      5.04015      0.39603        -0.075511      0.000000     -0.422534
      2.70330      5.04015      5.35556        -0.075511      0.000000      0.422534
      6.22277      1.68005      6.14763         0.075511     -0.000000     -0.422534
    total drift:                                0.000002     -0.000032     -0.000702

  FREE ENERGIE OF THE ION-ELECTRON SYSTEM (eV)
  free  energy   TOTEN  =      -132.05623400 eV

  energy  without entropy=     -132.05623400  energy(sigma->0) =     -132.05623400

 total charge

# of ion       s       p       d       tot
    1        2.011   5.604   0.292   7.908
    2        2.011   5.604   0.292   7.908
    3        2.011   5.604   0.292   7.908
    4        2.011   5.604   0.292   7.908
    5        2.005   5.597   0.285   7.887
    6        2.005   5.597   0.285   7.887
    7        2.005   5.597   0.285   7.887
    8        2.005   5.597   0.285   7.887
    9        0.808   0.876   0.000   1.684
   10        0.808   0.876   0.000   1.684
   11        0.808   0.876   0.000   1.684
   12        0.808   0.876   0.000   1.684
   13        0.808   0.875   0.000   1.683
   14        0.808   0.875   0.000   1.683
   15        0.808   0.875   0.000   1.683
   16        0.808   0.875   0.000   1.683
   17        0.822   0.826   0.000   1.648
   18        0.822   0.826   0.000   1.648
   19        0.822   0.826   0.000   1.648
   20        0.822   0.826   0.000   1.648
   21        0.806   0.873   0.000   1.678
   22        0.806   0.873   0.000   1.678
   23        0.806   0.873   0.000   1.678
   24        0.806   0.873   0.000   1.678
tot         29.038  58.600   2.309  89.948