 vasp.5.4.4.18Apr17-6-g9f103f2a35 (build Nov 21 2017 15:30:27) complex

 executed on             LinuxIFC date 2020.12.16  18:11:25

 INCAR:
 POTCAR:   PAW_PBE Ba_sv 06Sep2000
 POTCAR:   PAW_PBE Si 05Jan2001

 POTCAR:   PAW_PBE Ba_sv 06Sep2000
   VRHFIN =Ba: 5s5p6s

   TITEL  = PAW_PBE Ba_sv 06Sep2000
   POMASS =  137.327; ZVAL   =   10.000    mass and valenz
   ENMAX  =  187.210; ENMIN  =  140.408 eV
   QCUT   =   -3.709; QGAM   =    7.419    optimization parameters

   Description
     l     E      TYP  RCUT    TYP  RCUT
     0   .000     23  2.800
     0   .000     23  2.800
     1   .000     23  2.700
     1  2.000     23  2.700
     2   .000     23  2.700
     2   .000     23  2.700

 POTCAR:   PAW_PBE Si 05Jan2001
   VRHFIN =Si: s2p2

   TITEL  = PAW_PBE Si 05Jan2001
   POMASS =   28.085; ZVAL   =    4.000    mass and valenz
   ENMAX  =  245.345; ENMIN  =  184.009 eV
   QCUT   =   -4.246; QGAM   =    8.493    optimization parameters

   Description
     l     E      TYP  RCUT    TYP  RCUT
     0   .000     23  1.900
     0   .000     23  1.900
     1   .000     23  1.900
     1   .000     23  1.900
     2   .000      7  1.900

 Optimization of the real space projectors (new method)

 maximal supplied QI-value         = 13.42
 optimisation between [QCUT,QGAM] = [ 11.40, 22.81] = [ 36.42,145.68] Ry
 Optimized for a Real-space Cutoff    1.56 Angstroem

   l    n(q)    QCUT    max X(q) W(low)/X(q) W(high)/X(q)  e(spline)
   0     11    11.404     7.198    0.14E-04    0.26E-04    0.99E-07
   0     11    11.404    15.603    0.29E-04    0.72E-04    0.44E-06
   1     10    11.404     3.746    0.20E-04    0.24E-04    0.43E-07
   1     10    11.404     4.362    0.22E-03    0.97E-04    0.22E-06
   2     10    11.404     5.782    0.83E-04    0.62E-05    0.27E-06
   2     10    11.404    65.505    0.42E-03    0.31E-04    0.12E-05
 Optimization of the real space projectors (new method)

 maximal supplied QI-value         = 19.84
 optimisation between [QCUT,QGAM] = [ 11.31, 22.82] = [ 35.82,145.81] Ry
 Optimized for a Real-space Cutoff    1.16 Angstroem

   l    n(q)    QCUT    max X(q) W(low)/X(q) W(high)/X(q)  e(spline)
   0      8    11.310     8.708    0.14E-04    0.11E-04    0.43E-08
   0      8    11.310   106.241    0.27E-03    0.30E-03    0.38E-07
   1      7    11.310     5.901    0.82E-05    0.48E-04    0.19E-07
   1      7    11.310    73.241    0.27E-03    0.27E-03    0.74E-07

 PAW_PBE Ba_sv 06Sep2000                :
 PAW_PBE Si 05Jan2001                   :

 POSCAR: ba8 si16
  positions in cartesian coordinates
 exchange correlation table for  LEXCH =       42
   RHO(1)=    0.500       N(1)  =     2000
   RHO(2)=  100.500       N(2)  =     4000

 ion  position               nearest neighbor table
   1  0.015  0.250  0.691-  24 3.40  18 3.40  13 3.45  10 3.45  16 3.45  11 3.45  21 3.60  17 3.63
                            17 3.63   5 4.41   5 4.41   7 4.42   4 4.71   4 4.71
   2  0.985  0.750  0.309-  23 3.40  17 3.40   9 3.45  14 3.45  12 3.45  15 3.45  22 3.60  18 3.63
                            18 3.63   6 4.41   6 4.41   8 4.42   3 4.71   3 4.71
   3  0.485  0.750  0.191-  22 3.40  20 3.40  12 3.45  15 3.45   9 3.45  14 3.45  23 3.60  19 3.63
                            19 3.63   7 4.41   7 4.41   5 4.42   2 4.71   2 4.71
   4  0.515  0.250  0.809-  21 3.40  19 3.40  16 3.45  11 3.45  13 3.45  10 3.45  24 3.60  20 3.63
                            20 3.63   8 4.41   8 4.41   6 4.42   1 4.71   1 4.71
   5  0.159  0.750  0.907-  10 3.46  13 3.46  21 3.48  21 3.48  11 3.50  16 3.50  22 3.54   9 3.55
                            14 3.55  17 3.71  20 3.82   1 4.41   1 4.41   3 4.42
   6  0.841  0.250  0.093-  14 3.46   9 3.46  22 3.48  22 3.48  15 3.50  12 3.50  21 3.54  13 3.55
                            10 3.55  18 3.71  19 3.82   2 4.41   2 4.41   4 4.42
   7  0.341  0.250  0.407-  15 3.46  12 3.46  23 3.48  23 3.48  14 3.50   9 3.50  24 3.54  16 3.55
                            11 3.55  19 3.71  18 3.82   3 4.41   3 4.41   1 4.42
   8  0.659  0.750  0.593-  11 3.46  16 3.46  24 3.48  24 3.48  10 3.50  13 3.50  23 3.54  12 3.55
                            15 3.55  20 3.71  17 3.82   4 4.41   4 4.41   2 4.42
   9  0.194  0.073  0.147-  14 2.41  21 2.41  19 2.42   2 3.45   3 3.45   6 3.46   7 3.50   5 3.55

  10  0.806  0.927  0.853-  13 2.41  22 2.41  20 2.42   1 3.45   4 3.45   5 3.46   8 3.50   6 3.55

[...]

  24  0.698  0.250  0.533-  15 2.41  12 2.41  18 2.45   1 3.40   8 3.48   8 3.48   7 3.54   4 3.60

  LATTYP: Found a simple orthorhombic cell.
 ALAT       =     6.7778496742
 B/A-ratio  =     1.3292516818
 C/A-ratio  =     1.7117734747

  Lattice vectors:

 A1 = (   0.0000000000,  -6.7778496742,   0.0000000000)
 A2 = (  -9.0094680786,   0.0000000000,   0.0000000000)
 A3 = (   0.0000000000,   0.0000000000, -11.6021432877)

Analysis of symmetry for initial positions (statically):
 Subroutine PRICEL returns:
 Original cell was already a primitive cell.

 Routine SETGRP: Setting up the symmetry group for a
 simple orthorhombic supercell.

 Subroutine GETGRP returns: Found  8 space group operations
 (whereof  2 operations were pure point group operations)
 out of a pool of  8 trial point group operations.

The static configuration has the point symmetry S_2 .
 The point group associated with its full space group is D_2h.

Analysis of symmetry for dynamics (positions and initial velocities):
 Subroutine PRICEL returns:
 Original cell was already a primitive cell.

 Routine SETGRP: Setting up the symmetry group for a
 simple orthorhombic supercell.

 Subroutine GETGRP returns: Found  8 space group operations
 (whereof  2 operations were pure point group operations)
 out of a pool of  8 trial point group operations.

The dynamic configuration has the point symmetry S_2 .
 The point group associated with its full space group is D_2h.

 Subroutine INISYM returns: Found  8 space group operations
 (whereof  2 operations are pure point group operations),
 and found     1 'primitive' translations

 KPOINTS: k-density: 6.0

Automatic generation of k-mesh.
Space group operators:
 irot       det(A)        alpha          n_x          n_y          n_z        tau_x        tau_y        tau_z
    1     1.000000     0.000000     1.000000     0.000000     0.000000     0.000000     0.000000     0.000000
    2    -1.000000     0.000000     1.000000     0.000000     0.000000     0.000000     0.000000     0.000000
    3     1.000000   180.000000     0.000000     0.000000     1.000000    -0.500000     0.000000    -0.500000
    4    -1.000000   180.000000     0.000000     0.000000     1.000000    -0.500000     0.000000    -0.500000
    5     1.000000   180.000000     1.000000     0.000000     0.000000    -0.500000    -0.500000    -0.500000
    6    -1.000000   180.000000     1.000000     0.000000     0.000000    -0.500000    -0.500000    -0.500000
    7     1.000000   180.000000     0.000000     1.000000     0.000000    -0.000000    -0.500000    -0.000000
    8    -1.000000   180.000000     0.000000     1.000000     0.000000     0.000000    -0.500000     0.000000

 Subroutine IBZKPT returns following result:

 Found     36 irreducible k-points:

 Following reciprocal coordinates:
            Coordinates               Weight
  0.000000  0.000000  0.000000      1.000000
  0.200000  0.000000  0.000000      2.000000
  0.400000  0.000000  0.000000      2.000000
  0.000000  0.166667  0.000000      2.000000
  0.200000  0.166667  0.000000      4.000000
  0.400000  0.166667  0.000000      4.000000
  0.000000  0.333333  0.000000      2.000000
  0.200000  0.333333  0.000000      4.000000
  0.400000  0.333333  0.000000      4.000000
  0.000000  0.500000  0.000000      1.000000
  0.200000  0.500000  0.000000      2.000000
  0.400000  0.500000  0.000000      2.000000
  0.000000  0.000000  0.250000      2.000000
  0.200000  0.000000  0.250000      4.000000
  0.400000  0.000000  0.250000      4.000000
  0.000000  0.166667  0.250000      4.000000
  0.200000  0.166667  0.250000      8.000000
  0.400000  0.166667  0.250000      8.000000
  0.000000  0.333333  0.250000      4.000000
  0.200000  0.333333  0.250000      8.000000
  0.400000  0.333333  0.250000      8.000000
  0.000000  0.500000  0.250000      2.000000
  0.200000  0.500000  0.250000      4.000000
  0.400000  0.500000  0.250000      4.000000
  0.000000  0.000000  0.500000      1.000000
  0.200000  0.000000  0.500000      2.000000
  0.400000  0.000000  0.500000      2.000000
  0.000000  0.166667  0.500000      2.000000
  0.200000  0.166667  0.500000      4.000000
  0.400000  0.166667  0.500000      4.000000
  0.000000  0.333333  0.500000      2.000000
  0.200000  0.333333  0.500000      4.000000
  0.400000  0.333333  0.500000      4.000000
  0.000000  0.500000  0.500000      1.000000
  0.200000  0.500000  0.500000      2.000000
  0.400000  0.500000  0.500000      2.000000

 Following cartesian coordinates:
            Coordinates               Weight
  0.000000  0.000000  0.000000      1.000000
  0.022199  0.000000  0.000000      2.000000
  0.044398  0.000000  0.000000      2.000000
  0.000000  0.024590  0.000000      2.000000
  0.022199  0.024590  0.000000      4.000000
  0.044398  0.024590  0.000000      4.000000
  0.000000  0.049180  0.000000      2.000000
  0.022199  0.049180  0.000000      4.000000
  0.044398  0.049180  0.000000      4.000000
  0.000000  0.073770  0.000000      1.000000
  0.022199  0.073770  0.000000      2.000000
  0.044398  0.073770  0.000000      2.000000
  0.000000  0.000000  0.021548      2.000000
  0.022199  0.000000  0.021548      4.000000
  0.044398  0.000000  0.021548      4.000000
  0.000000  0.024590  0.021548      4.000000
  0.022199  0.024590  0.021548      8.000000
  0.044398  0.024590  0.021548      8.000000
  0.000000  0.049180  0.021548      4.000000
  0.022199  0.049180  0.021548      8.000000
  0.044398  0.049180  0.021548      8.000000
  0.000000  0.073770  0.021548      2.000000
  0.022199  0.073770  0.021548      4.000000
  0.044398  0.073770  0.021548      4.000000
  0.000000  0.000000  0.043095      1.000000
  0.022199  0.000000  0.043095      2.000000
  0.044398  0.000000  0.043095      2.000000
  0.000000  0.024590  0.043095      2.000000
  0.022199  0.024590  0.043095      4.000000
  0.044398  0.024590  0.043095      4.000000
  0.000000  0.049180  0.043095      2.000000
  0.022199  0.049180  0.043095      4.000000
  0.044398  0.049180  0.043095      4.000000
  0.000000  0.073770  0.043095      1.000000
  0.022199  0.073770  0.043095      2.000000
  0.044398  0.073770  0.043095      2.000000

 TETIRR: Found    360 inequivalent tetrahedra from      720

 SYSTEM =  unknown system
 POSCAR =  ba8 si16

 Startparameter for this run:
   NWRITE =      2    write-flag & timer
   PREC   = normal    normal or accurate (medium, high low for compatibility)
   ISTART =      0    job   : 0-new  1-cont  2-samecut
   ICHARG =      2    charge: 1-file 2-atom 10-const
   ISPIN  =      1    spin polarized calculation?
   LNONCOLLINEAR =      F non collinear calculations
   LSORBIT =      F    spin-orbit coupling
   INIWAV =      1    electr: 0-lowe 1-rand  2-diag
   LASPH  =      T    aspherical Exc in radial PAW
[...]
    total drift:                               -0.000280      0.000406      0.000067

  FREE ENERGIE OF THE ION-ELECTRON SYSTEM (eV)
  free  energy   TOTEN  =      -100.13283364 eV

  energy  without entropy=     -100.13283364  energy(sigma->0) =     -100.13283364

[...]

 d Force = 0.8541520E-02[ 0.245E-02, 0.146E-01]  d Energy = 0.1210246E-01-0.356E-02
 d Force = 0.3998000E+01[ 0.395E+01, 0.405E+01]  d Ewald  = 0.1458494E+02-0.106E+02

 Steepest descent step on ions:
 trial-energy change:   -0.012102  1 .order   -0.012077   -0.018968   -0.005186
  (g-gl).g = 0.190E-01      g.g   = 0.190E-01  gl.gl    = 0.000E+00
 g(Force)  = 0.147E-01   g(Stress)= 0.432E-02 ortho     = 0.000E+00
 gamma     =   0.00000
 trial     =   1.00000
 opt step  =   1.37625  (harmonic =   1.37625) maximal distance =0.01014200
 next E    =  -100.145886   (d E  =  -0.01305)

[...]

 d Force = 0.1219225E-03[-0.680E-03, 0.924E-03]  d Energy = 0.1056706E-02-0.935E-03
 d Force = 0.1479981E+01[ 0.147E+01, 0.149E+01]  d Ewald  = 0.5473303E+01-0.399E+01

[...]

 d Force = 0.6723927E-03[ 0.464E-03, 0.881E-03]  d Energy = 0.1087119E-02-0.415E-03
 d Force =-0.1176696E+00[-0.119E+00,-0.116E+00]  d Ewald  = 0.8144222E+01-0.826E+01

 Conjugate gradient step on ions:
 trial-energy change:   -0.001087  1 .order   -0.001077   -0.002968    0.000813
  (g-gl).g = 0.219E-02      g.g   = 0.270E-02  gl.gl    = 0.190E-01
 g(Force)  = 0.103E-02   g(Stress)= 0.167E-02 ortho     = 0.509E-03
 gamma     =   0.11555
 trial     =   1.07525
 opt step  =   0.84683  (harmonic =   0.84403) maximal distance =0.00131764
 next E    =  -100.147166   (d E  =  -0.00117)

[...]

 d Force =-0.1087783E-03[-0.119E-03,-0.987E-04]  d Energy = 0.8891696E-04-0.198E-03
 d Force = 0.2531669E-01[ 0.252E-01, 0.254E-01]  d Ewald  =-0.1731615E+01 0.176E+01

[...]

 Conjugate gradient step on ions:
 trial-energy change:   -0.000506  1 .order   -0.000515   -0.000619   -0.000410
  (g-gl).g = 0.643E-03      g.g   = 0.604E-03  gl.gl    = 0.270E-02
 g(Force)  = 0.449E-03   g(Stress)= 0.155E-03 ortho     =-0.105E-04
 gamma     =   0.23791
 trial     =   1.02956
 opt step  =   3.04905  (harmonic =   3.04905) maximal distance =0.00467589
 next E    =  -100.148086   (d E  =  -0.00092)

[...]

 d Force = 0.3030362E-03[ 0.286E-03, 0.320E-03]  d Energy = 0.3894092E-03-0.864E-04
 d Force =-0.2227114E-01[-0.227E-01,-0.219E-01]  d Ewald  =-0.1174493E+00 0.952E-01

[...]

 d Force = 0.6770253E-03[ 0.495E-03, 0.859E-03]  d Energy = 0.8538449E-03-0.177E-03
 d Force =-0.7154244E-01[-0.751E-01,-0.680E-01]  d Ewald  =-0.3565331E+00 0.285E+00

[...]

 d Force = 0.2248872E-03[-0.540E-03, 0.990E-03]  d Energy = 0.1869807E-03 0.379E-04
 d Force =-0.1644858E+00[-0.179E+00,-0.150E+00]  d Ewald  =-0.7319953E+00 0.568E+00

[...]

 d Force = 0.7964921E-04[-0.787E-04, 0.238E-03]  d Energy = 0.1649635E-03-0.853E-04
 d Force = 0.7602162E-01[ 0.732E-01, 0.788E-01]  d Ewald  = 0.3254649E+00-0.249E+00

[...]

 d Force = 0.2007980E-03[ 0.173E-03, 0.228E-03]  d Energy = 0.1928609E-03 0.794E-05
 d Force = 0.1077010E-01[ 0.105E-01, 0.111E-01]  d Ewald  =-0.7308584E-01 0.839E-01

[...]

 d Force = 0.1681849E-03[-0.184E-03, 0.520E-03]  d Energy = 0.1690397E-03-0.855E-06
 d Force = 0.2882844E-01[ 0.262E-01, 0.314E-01]  d Ewald  =-0.2228339E+00 0.252E+00

[...]

 d Force = 0.2300509E-04[-0.627E-05, 0.523E-04]  d Energy = 0.1992918E-04 0.308E-05
 d Force =-0.7682900E-02[-0.789E-02,-0.747E-02]  d Ewald  = 0.6382591E-01-0.715E-01

 real space projection operators:
  max/ min on nodes  :       1136.88       1047.31

[...]

 eigenvalue-minimisations  :  7512
 total energy-change (2. order) : 0.2375505E-05  (-0.1055290E-05)
 number of electron     143.9999997 magnetization
 augmentation part      -17.7449257 magnetization

 Broyden mixing:
  rms(total) = 0.32570E-03    rms(broyden)= 0.32570E-03
  rms(prec ) = 0.39473E-03
  weight for this iteration     100.00

 eigenvalues of (default mixing * dielectric matrix)
  average eigenvalue GAMMA=   1.5071
  2.4294  1.0459  1.0459

[...]

--------------------------------------- Iteration     15(   5)  ---------------------------------------

 BZINTS: Fermi energy:  3.511308;144.000000 electrons
         Band energy:-858.615518;  BLOECHL correction:  0.000000

 eigenvalue-minimisations  :  4064
 total energy-change (2. order) :-0.1360395E-06  (-0.1040786E-06)
 number of electron     143.9999997 magnetization
 augmentation part      -17.7449257 magnetization

 Free energy of the ion-electron system (eV)
  alpha Z        PSCENC =       458.44135721
  Ewald energy   TEWEN  =     -6400.38117952
  -Hartree energ DENC   =      -918.81821539
  -exchange      EXHF   =         0.00000000
  -V(xc)+E(xc)   XCENC  =        40.42488712
  PAW double counting   =      3868.66319824    -3567.43966723
  entropy T*S    EENTRO =         0.00000000
  eigenvalues    EBANDS =      -858.61551794
  atomic energy  EATOM  =      7277.57480299
  Solvation  Ediel_sol  =         0.00000000
  free energy    TOTEN  =      -100.15033451 eV

  energy without entropy =     -100.15033451  energy(sigma->0) =     -100.15033451

 average (electrostatic) potential at core
  the test charge radii are     1.2192  0.9892
  (the norm of the test charge is              1.0000)
       1 -37.8648       2 -37.8648       3 -37.8648       4 -37.8648       5 -37.9820
       6 -37.9820       7 -37.9820       8 -37.9820       9 -86.0496      10 -86.0496
      11 -86.0496      12 -86.0496      13 -86.0496      14 -86.0496      15 -86.0496
      16 -86.0496      17 -86.1156      18 -86.1156      19 -86.1156      20 -86.1156
      21 -86.0084      22 -86.0084      23 -86.0084      24 -86.0084

 E-fermi :   3.5113     XC(G=0):  -8.8521     alpha+bet :-10.3414

[...]

 k-point    36 :       0.4000    0.5000    0.5000
  band No.  band energies     occupation
      1     -24.2432      2.00000
      2     -24.2432      2.00000
      3     -24.2430      2.00000
      4     -24.2430      2.00000
      5     -24.1542      2.00000
      6     -24.1542      2.00000
      7     -24.1516      2.00000
      8     -24.1516      2.00000
      9      -9.7495      2.00000
     10      -9.7495      2.00000
     11      -9.7312      2.00000
     12      -9.7312      2.00000
     13      -9.6850      2.00000
     14      -9.6850      2.00000
     15      -9.6713      2.00000
     16      -9.6713      2.00000
     17      -9.5584      2.00000
     18      -9.5584      2.00000
     19      -9.5226      2.00000
     20      -9.5226      2.00000
     21      -9.4623      2.00000
     22      -9.4623      2.00000
     23      -9.4480      2.00000
     24      -9.4480      2.00000
     25      -9.4082      2.00000
     26      -9.4081      2.00000
     27      -9.4039      2.00000
     28      -9.4039      2.00000
     29      -9.3818      2.00000
     30      -9.3818      2.00000
     31      -9.3802      2.00000
     32      -9.3802      2.00000
     33      -6.9925      2.00000
     34      -6.9925      2.00000
     35      -6.9912      2.00000
     36      -6.9912      2.00000
     37      -2.6508      2.00000
     38      -2.6508      2.00000
     39      -2.5526      2.00000
     40      -2.5526      2.00000
     41      -2.2521      2.00000
     42      -2.2521      2.00000
     43      -2.2199      2.00000
     44      -2.2199      2.00000
     45      -2.1184      2.00000
     46      -2.1184      2.00000
     47      -2.0560      2.00000
     48      -2.0560      2.00000
     49       1.0567      2.00000
     50       1.0567      2.00000
     51       1.1372      2.00000
     52       1.1372      2.00000
     53       1.5704      2.00000
     54       1.5704      2.00000
     55       1.7314      2.00000
     56       1.7314      2.00000
     57       1.9130      2.00000
     58       1.9130      2.00000
     59       2.0112      2.00000
     60       2.0112      2.00000
[...]
     74       4.3331      0.00000
     75       4.5124      0.00000
     76       4.5124      0.00000
     77       4.6689      0.00000
     78       4.6689      0.00000
     79       4.9380      0.00000
     80       4.9380      0.00000
     81       5.3938      0.00000
     82       5.3938      0.00000
     83       5.5407      0.00000
     84       5.5407      0.00000
     85       5.8529      0.00000
     86       5.8529      0.00000
     87       5.9698      0.00000
     88       5.9698      0.00000

 soft charge-density along one line, spin component           1
         0         1         2         3         4         5         6         7         8         9
 total charge-density along one line

------------------------ aborting loop because EDIFF is reached ----------------------------------------

  FORCE on cell =-STRESS in cart. coord.  units (eV):
  Direction    XX          YY          ZZ          XY          YZ          ZX
  Alpha Z   458.44136   458.44136   458.44136
  Ewald   -2149.88952 -2131.26592 -2119.24374    -0.00000    -0.00000    -0.00014
  Hartree   296.37476   310.07490   312.36818     0.00000    -0.00000     0.00001
  E(xc)    -471.39373  -471.33288  -471.32993    -0.00000    -0.00000    -0.00000
  Local     129.61795   104.02053    90.33498     0.00000     0.00000     0.00009
  n-local   345.94854   343.05376   343.72876    -0.10251    -0.04957    -0.14942
  augment  -167.52652  -166.51115  -166.71488    -0.00000    -0.00000    -0.00000
  Kinetic  1558.34310  1553.48066  1552.44299     0.64097    -0.72879    -0.04327
  Fock        0.00000     0.00000     0.00000     0.00000     0.00000     0.00000
  Total      -0.08406    -0.03873     0.02770     0.00000     0.00000     0.00000
  in kB      -0.19184    -0.08840     0.06322     0.00000     0.00000     0.00000

 VOLUME and BASIS-vectors are now :
  energy-cutoff  :      500.00
  volume of cell :      702.01
      direct lattice vectors                 reciprocal lattice vectors
     8.968362135  0.000000000  0.000000000     0.111503080  0.000000000  0.000000000
    -0.000000000  6.761315549  0.000000000    -0.000000000  0.147900212  0.000000000
     0.000000000  0.000000000 11.577124263     0.000000000  0.000000000  0.086377236

  length of vectors
     8.968362135  6.761315549 11.577124263     0.111503080  0.147900212  0.086377236

 FORCES acting on ions
    electron-ion (+dipol)            ewald-force                    non-local-force                 convergence-correction
   0.257E+01 0.814E-04 0.217E+01   -.291E+01 0.138E-04 -.255E+01   0.336E+00 -.663E-18 0.373E+00   -.162E-03 0.384E-10 0.541E-03
   -.257E+01 0.895E-05 -.217E+01   0.291E+01 -.198E-04 0.255E+01   -.336E+00 0.656E-18 -.373E+00   0.162E-03 0.101E-08 -.541E-03
   -.257E+01 0.466E-05 0.218E+01   0.291E+01 -.198E-04 -.255E+01   -.336E+00 -.125E-18 0.373E+00   0.162E-03 -.253E-09 0.541E-03
   0.257E+01 0.771E-04 -.218E+01   -.291E+01 0.138E-04 0.255E+01   0.336E+00 0.151E-18 -.373E+00   -.162E-03 -.122E-08 -.541E-03
   -.223E+02 0.749E-05 -.474E+01   0.215E+02 -.178E-04 0.483E+01   0.761E+00 0.413E-18 -.104E+00   0.406E-04 0.949E-09 -.701E-03
   0.223E+02 0.795E-04 0.474E+01   -.215E+02 0.171E-04 -.483E+01   -.761E+00 -.487E-18 0.104E+00   -.406E-04 0.137E-08 0.701E-03
   0.223E+02 0.775E-04 -.474E+01   -.215E+02 0.171E-04 0.483E+01   -.761E+00 -.608E-18 -.104E+00   -.406E-04 0.254E-09 -.701E-03
   -.223E+02 0.542E-05 0.474E+01   0.215E+02 -.178E-04 -.483E+01   0.761E+00 -.365E-18 0.104E+00   0.406E-04 -.162E-09 0.701E-03
   0.100E+02 0.302E+02 -.170E+02   -.106E+02 -.319E+02 0.180E+02   0.585E+00 0.164E+01 -.987E+00   -.774E-04 -.153E-03 0.204E-03
   -.100E+02 -.302E+02 0.170E+02   0.106E+02 0.319E+02 -.180E+02   -.585E+00 -.164E+01 0.987E+00   0.774E-04 0.153E-03 -.204E-03
   -.100E+02 -.302E+02 -.170E+02   0.106E+02 0.319E+02 0.180E+02   -.585E+00 -.164E+01 -.987E+00   0.774E-04 0.153E-03 0.204E-03
   0.100E+02 0.302E+02 0.170E+02   -.106E+02 -.319E+02 -.180E+02   0.585E+00 0.164E+01 0.987E+00   -.774E-04 -.153E-03 -.204E-03
   -.100E+02 0.302E+02 0.170E+02   0.106E+02 -.319E+02 -.180E+02   -.585E+00 0.164E+01 0.987E+00   0.774E-04 -.153E-03 -.204E-03
   0.100E+02 -.302E+02 -.170E+02   -.106E+02 0.319E+02 0.180E+02   0.585E+00 -.164E+01 -.987E+00   -.774E-04 0.153E-03 0.204E-03
   0.100E+02 -.302E+02 0.170E+02   -.106E+02 0.319E+02 -.180E+02   0.585E+00 -.164E+01 0.987E+00   -.774E-04 0.153E-03 -.204E-03
   -.100E+02 0.302E+02 -.170E+02   0.106E+02 -.319E+02 0.180E+02   -.585E+00 0.164E+01 -.987E+00   0.774E-04 -.153E-03 0.204E-03
   0.433E+02 -.119E-04 0.480E+00   -.455E+02 -.771E-05 -.123E+01   0.229E+01 -.629E-17 0.752E+00   -.764E-04 -.566E-10 -.946E-04
   -.433E+02 -.770E-07 -.480E+00   0.455E+02 0.799E-05 0.123E+01   -.229E+01 0.106E-16 -.752E+00   0.764E-04 -.110E-09 0.946E-04
   -.433E+02 0.830E-05 0.480E+00   0.455E+02 0.799E-05 -.123E+01   -.229E+01 0.116E-16 0.752E+00   0.764E-04 -.483E-09 -.945E-04
   0.433E+02 -.352E-05 -.480E+00   -.455E+02 -.771E-05 0.123E+01   0.229E+01 0.455E-17 -.752E+00   -.764E-04 -.430E-09 0.946E-04
   0.774E+01 -.353E-05 0.345E+02   -.785E+01 0.863E-05 -.364E+02   0.104E+00 0.807E-18 0.197E+01   0.131E-03 -.392E-09 -.365E-03
   -.774E+01 -.146E-04 -.345E+02   0.785E+01 -.901E-05 0.364E+02   -.104E+00 -.153E-18 -.197E+01   -.131E-03 -.986E-09 0.365E-03
   -.774E+01 -.102E-05 0.345E+02   0.785E+01 -.901E-05 -.364E+02   -.104E+00 0.114E-17 0.197E+01   -.131E-03 -.411E-09 -.365E-03
   0.774E+01 0.101E-04 -.345E+02   -.785E+01 0.863E-05 0.364E+02   0.104E+00 0.170E-17 -.197E+01   0.131E-03 0.182E-09 0.365E-03
   -.277E-03 0.405E-03 0.662E-04   -.888E-14 -.114E-13 -.284E-13   0.000E+00 0.239E-16 -.222E-15   -.733E-08 -.315E-10 0.283E-08

 POSITION                                       TOTAL-FORCE (eV/Angst)
      0.13177      1.69033      8.02462         0.002110      0.000000     -0.004824
      8.83659      5.07099      3.55250        -0.002110     -0.000000      0.004824
      4.35241      5.07099      2.23606        -0.002110     -0.000000     -0.004824
      4.61595      1.69033      9.34106         0.002110      0.000000      0.004824
      1.43730      5.07099     10.49635         0.001393      0.000000     -0.008439
      7.53106      1.69033      1.08077        -0.001393     -0.000000      0.008439
      3.04688      1.69033      4.70779        -0.001393     -0.000000     -0.008439
      5.92148      5.07099      6.86933         0.001393     -0.000000      0.008439
      1.74057      0.48271      1.68755         0.004409     -0.003785     -0.001443
      7.22780      6.27860      9.88958        -0.004409      0.003785      0.001443
      2.74362      6.27860      7.47611        -0.004409      0.003785     -0.001443
      6.22475      0.48271      4.10101         0.004409     -0.003785      0.001443
      7.22780      3.86337      9.88958        -0.004409     -0.003785      0.001443
      1.74057      2.89795      1.68755         0.004409      0.003785     -0.001443
      6.22475      2.89795      4.10101         0.004409      0.003785      0.001443
      2.74362      3.86337      7.47611        -0.004409     -0.003785     -0.001443
      0.73582      5.07099      6.83066         0.003032      0.000000     -0.000981
      8.23254      1.69033      4.74647        -0.003032     -0.000000      0.000981
      3.74836      1.69033      1.04210        -0.003032     -0.000000     -0.000981
      5.22000      5.07099     10.53503         0.003032      0.000000      0.000981
      1.76580      1.69033     11.17221         0.003746      0.000000     -0.001863
      7.20256      5.07099      0.40491        -0.003746     -0.000000      0.001863
      2.71838      5.07099      5.38365        -0.003746     -0.000000     -0.001863
      6.24998      1.69033      6.19348         0.003746      0.000000      0.001863
    total drift:                               -0.000277      0.000405      0.000066

  FREE ENERGIE OF THE ION-ELECTRON SYSTEM (eV)
  free  energy   TOTEN  =      -100.15033451 eV

  energy  without entropy=     -100.15033451  energy(sigma->0) =     -100.15033451

 d Force = 0.1365252E-03[ 0.737E-04, 0.199E-03]  d Energy = 0.1706229E-03-0.341E-04
 d Force = 0.2791022E+00[ 0.278E+00, 0.280E+00]  d Ewald  = 0.2606219E+00 0.185E-01

 Conjugate gradient step on ions:
 trial-energy change:   -0.000171  1 .order   -0.000178   -0.000254   -0.000101
  (g-gl).g = 0.196E-03      g.g   = 0.212E-03  gl.gl    = 0.214E-03
 g(Force)  = 0.160E-03   g(Stress)= 0.521E-04 ortho     = 0.338E-06
 gamma     =   0.91946
 trial     =   1.19702
 opt step  =   1.98960  (harmonic =   1.98960) maximal distance =0.00323116
 next E    =  -100.150375   (d E  =  -0.00021)

 reached required accuracy - stopping structural energy minimisation
 writing wavefunctions
 BZINTS: Fermi energy:  3.511308;144.000000 electrons
         Band energy:-858.615518;  BLOECHL correction:  0.000000