 vasp.5.4.4.18Apr17-6-g9f103f2a35 (build Nov 21 2017 15:30:27) complex

 executed on             LinuxIFC date 2020.08.19  05:16:12

 INCAR:
 POTCAR:   PAW_PBE Ba_sv 06Sep2000
 POTCAR:   PAW_PBE Si 05Jan2001
 POTCAR:   PAW_PBE C 08Apr2002

 POTCAR:   PAW_PBE Ba_sv 06Sep2000
   VRHFIN =Ba: 5s5p6s

   TITEL  = PAW_PBE Ba_sv 06Sep2000
   POMASS =  137.327; ZVAL   =   10.000    mass and valenz
   ENMAX  =  187.210; ENMIN  =  140.408 eV
   QCUT   =   -3.709; QGAM   =    7.419    optimization parameters

   Description
     l     E      TYP  RCUT    TYP  RCUT
     0   .000     23  2.800
     0   .000     23  2.800
     1   .000     23  2.700
     1  2.000     23  2.700
     2   .000     23  2.700
     2   .000     23  2.700

 POTCAR:   PAW_PBE Si 05Jan2001
   VRHFIN =Si: s2p2

   TITEL  = PAW_PBE Si 05Jan2001
   POMASS =   28.085; ZVAL   =    4.000    mass and valenz
   ENMAX  =  245.345; ENMIN  =  184.009 eV
   QCUT   =   -4.246; QGAM   =    8.493    optimization parameters

[...]

 POTCAR:   PAW_PBE C 08Apr2002
   VRHFIN =C: s2p2

   TITEL  = PAW_PBE C 08Apr2002
   POMASS =   12.011; ZVAL   =    4.000    mass and valenz
   ENMAX  =  400.000; ENMIN  =  300.000 eV
   QCUT   =   -5.516; QGAM   =   11.032    optimization parameters

   Description
     l     E      TYP  RCUT    TYP  RCUT
     0   .000     23  1.200
     0   .000     23  1.200
     1   .000     23  1.500
     1  2.500     23  1.500
     2   .000      7  1.500

 Optimization of the real space projectors (new method)

 maximal supplied QI-value         = 13.42
 optimisation between [QCUT,QGAM] = [ 11.40, 22.81] = [ 36.42,145.68] Ry
 Optimized for a Real-space Cutoff    1.56 Angstroem

   l    n(q)    QCUT    max X(q) W(low)/X(q) W(high)/X(q)  e(spline)
   0     11    11.404     7.198    0.14E-04    0.26E-04    0.99E-07
   0     11    11.404    15.603    0.29E-04    0.72E-04    0.44E-06
   1     10    11.404     3.746    0.20E-04    0.24E-04    0.43E-07
   1     10    11.404     4.362    0.22E-03    0.97E-04    0.22E-06
   2     10    11.404     5.782    0.83E-04    0.62E-05    0.27E-06
   2     10    11.404    65.505    0.42E-03    0.31E-04    0.12E-05
 Optimization of the real space projectors (new method)

[...]

   l    n(q)    QCUT    max X(q) W(low)/X(q) W(high)/X(q)  e(spline)
   0      8    11.310     8.708    0.14E-04    0.11E-04    0.43E-08
   0      8    11.310   106.241    0.27E-03    0.30E-03    0.38E-07
   1      7    11.310     5.901    0.82E-05    0.48E-04    0.19E-07
   1      7    11.310    73.241    0.27E-03    0.27E-03    0.74E-07
 Optimization of the real space projectors (new method)

 maximal supplied QI-value         = 25.13
 optimisation between [QCUT,QGAM] = [ 11.31, 22.87] = [ 35.82,146.48] Ry
 Optimized for a Real-space Cutoff    1.00 Angstroem

   l    n(q)    QCUT    max X(q) W(low)/X(q) W(high)/X(q)  e(spline)
   0      7    11.310     5.582    0.73E-04    0.21E-03    0.14E-07
   0      7    11.310    69.432    0.43E-03    0.13E-02    0.18E-06
   1      6    11.310     2.780    0.17E-04    0.12E-03    0.37E-07
   1      6    11.310     4.549    0.34E-03    0.55E-03    0.92E-07
 PAW_PBE Ba_sv 06Sep2000                :
 PAW_PBE Si 05Jan2001                   :
 PAW_PBE C 08Apr2002                    :

 POSCAR: ba8 si8 c8
  positions in direct lattice
  velocities in cartesian coordinates
 exchange correlation table for  LEXCH =        8
   RHO(1)=    0.500       N(1)  =     2000
   RHO(2)=  100.500       N(2)  =     4000

 ion  position               nearest neighbor table
   1  0.970  0.250  0.650-  18 2.74  24 3.03  13 3.24  10 3.24  16 3.29  11 3.29   7 4.35   8 4.35
                             8 4.35   5 4.59   5 4.59   2 4.62   2 4.62
   2  0.030  0.750  0.350-  17 2.74  23 3.03   9 3.24  14 3.24  12 3.29  15 3.29   8 4.35   7 4.35
                             7 4.35   6 4.59   6 4.59   1 4.62   1 4.62
   3  0.530  0.750  0.150-  20 2.74  22 3.03  12 3.24  15 3.24   9 3.29  14 3.29   5 4.35   6 4.35
                             6 4.35   7 4.59   7 4.59   4 4.62   4 4.62
   4  0.470  0.250  0.850-  19 2.74  21 3.03  16 3.24  11 3.24  13 3.29  10 3.29   6 4.35   5 4.35
                             5 4.35   8 4.59   8 4.59   3 4.62   3 4.62
   5  0.124  0.750  0.927-  22 2.90  21 3.30  21 3.30  10 3.34  13 3.34   9 3.40  14 3.40  11 3.51
                            16 3.51   6 4.07   6 4.07   3 4.35   4 4.35   4 4.35   1 4.59   1 4.59
   6  0.876  0.250  0.073-  21 2.90  22 3.30  22 3.30  14 3.34   9 3.34  13 3.40  10 3.40  15 3.51
                            12 3.51   5 4.07   5 4.07   4 4.35   3 4.35   3 4.35   2 4.59   2 4.59
   7  0.376  0.250  0.427-  24 2.90  23 3.30  23 3.30  15 3.34  12 3.34  16 3.40  11 3.40  14 3.51
                             9 3.51   8 4.07   8 4.07   1 4.35   2 4.35   2 4.35   3 4.59   3 4.59
   8  0.624  0.750  0.573-  23 2.90  24 3.30  24 3.30  11 3.34  16 3.34  12 3.40  15 3.40  10 3.51
                            13 3.51   7 4.07   7 4.07   2 4.35   1 4.35   1 4.35   4 4.59   4 4.59
   9  0.216  0.057  0.166-  19 2.01  21 2.02  14 2.34   2 3.24   3 3.29   6 3.34   5 3.40   7 3.51

  10  0.784  0.943  0.834-  20 2.01  22 2.02  13 2.34   1 3.24   4 3.29   5 3.34   6 3.40   8 3.51

[...]

  17  0.141  0.750  0.573-  23 1.45  11 2.01  16 2.01   2 2.74
  18  0.859  0.250  0.427-  24 1.45  15 2.01  12 2.01   1 2.74
  19  0.359  0.250  0.073-  21 1.45  14 2.01   9 2.01   4 2.74
  20  0.641  0.750  0.927-  22 1.45  10 2.01  13 2.01   3 2.74
  21  0.205  0.250  0.023-  19 1.45  14 2.02   9 2.02   6 2.90   4 3.03   5 3.30   5 3.30
  22  0.795  0.750  0.977-  20 1.45  10 2.02  13 2.02   5 2.90   3 3.03   6 3.30   6 3.30
  23  0.295  0.750  0.523-  17 1.45  11 2.02  16 2.02   8 2.90   2 3.03   7 3.30   7 3.30
  24  0.705  0.250  0.477-  18 1.45  15 2.02  12 2.02   7 2.90   1 3.03   8 3.30   8 3.30

  LATTYP: Found a simple orthorhombic cell.
 ALAT       =     6.0564259749
 B/A-ratio  =     1.4282179559
 C/A-ratio  =     1.8966871615

  Lattice vectors:

 A1 = (   0.0000000000,  -6.0564259749,   0.0000000000)
 A2 = (  -8.6498963262,   0.0000000000,   0.0000000000)
 A3 = (   0.0000000000,   0.0000000000, -11.4871453913)

Analysis of symmetry for initial positions (statically):
 Subroutine PRICEL returns:
 Original cell was already a primitive cell.

 Routine SETGRP: Setting up the symmetry group for a
 simple orthorhombic supercell.

 Subroutine GETGRP returns: Found  8 space group operations
 (whereof  2 operations were pure point group operations)
 out of a pool of  8 trial point group operations.

The static configuration has the point symmetry S_2 .
 The point group associated with its full space group is D_2h.

Analysis of symmetry for dynamics (positions and initial velocities):
 Subroutine PRICEL returns:
 Original cell was already a primitive cell.

 Routine SETGRP: Setting up the symmetry group for a
 simple orthorhombic supercell.

 Subroutine GETGRP returns: Found  8 space group operations
 (whereof  2 operations were pure point group operations)
 out of a pool of  8 trial point group operations.

The dynamic configuration has the point symmetry S_2 .
 The point group associated with its full space group is D_2h.

 Subroutine INISYM returns: Found  8 space group operations
 (whereof  2 operations are pure point group operations),
 and found     1 'primitive' translations

 KPOINTS: Automatically generated mesh
  k-points in reciprocal lattice
Space group operators:
 irot       det(A)        alpha          n_x          n_y          n_z        tau_x        tau_y        tau_z
    1     1.000000     0.000001     1.000000     0.000000     0.000000     0.000000     0.000000     0.000000
    2    -1.000000     0.000001     1.000000     0.000000     0.000000     0.000000     0.000000     0.000000
    3     1.000000   179.999999     0.000000     0.000000     1.000000    -0.500000     0.000000    -0.500000
    4    -1.000000   179.999999     0.000000     0.000000     1.000000    -0.500000     0.000000    -0.500000
    5     1.000000   180.000000     1.000000     0.000000     0.000000    -0.500000    -0.500000    -0.500000
    6    -1.000000   180.000000     1.000000     0.000000     0.000000    -0.500000    -0.500000    -0.500000
    7     1.000000   180.000000     0.000000     1.000000     0.000000     0.000000    -0.500000    -0.000000
    8    -1.000000   180.000000     0.000000     1.000000     0.000000     0.000000    -0.500000     0.000000

 Subroutine IBZKPT_HF returns following result:

 Found     48 k-points in 1st BZ
 the following     48 k-points will be used (e.g. in the exchange kernel)
 Following reciprocal coordinates:   # in IRBZ
  0.000000  0.000000  0.000000    0.02083333   1 t-inv F
  0.166667  0.000000  0.000000    0.02083333   2 t-inv F
  0.333333  0.000000  0.000000    0.02083333   3 t-inv F
  0.500000  0.000000  0.000000    0.02083333   4 t-inv F
  0.000000  0.125000  0.000000    0.02083333   5 t-inv F
  0.166667  0.125000  0.000000    0.02083333   6 t-inv F
  0.333333  0.125000  0.000000    0.02083333   7 t-inv F
  0.500000  0.125000  0.000000    0.02083333   8 t-inv F
  0.000000  0.250000  0.000000    0.02083333   9 t-inv F
  0.166667  0.250000  0.000000    0.02083333  10 t-inv F
  0.333333  0.250000  0.000000    0.02083333  11 t-inv F
  0.500000  0.250000  0.000000    0.02083333  12 t-inv F
  0.000000  0.375000  0.000000    0.02083333  13 t-inv F
  0.166667  0.375000  0.000000    0.02083333  14 t-inv F
  0.333333  0.375000  0.000000    0.02083333  15 t-inv F
  0.500000  0.375000  0.000000    0.02083333  16 t-inv F
  0.000000  0.500000  0.000000    0.02083333  17 t-inv F
  0.166667  0.500000  0.000000    0.02083333  18 t-inv F
  0.333333  0.500000  0.000000    0.02083333  19 t-inv F
  0.500000  0.500000  0.000000    0.02083333  20 t-inv F
 -0.166667  0.000000  0.000000    0.02083333   2 t-inv F
 -0.333333  0.000000  0.000000    0.02083333   3 t-inv F
  0.000000 -0.125000  0.000000    0.02083333   5 t-inv F
 -0.166667 -0.125000  0.000000    0.02083333   6 t-inv F
  0.166667 -0.125000  0.000000    0.02083333   6 t-inv F
 -0.166667  0.125000  0.000000    0.02083333   6 t-inv F
 -0.333333 -0.125000  0.000000    0.02083333   7 t-inv F
  0.333333 -0.125000  0.000000    0.02083333   7 t-inv F
 -0.333333  0.125000  0.000000    0.02083333   7 t-inv F
 -0.500000 -0.125000  0.000000    0.02083333   8 t-inv F
  0.000000 -0.250000  0.000000    0.02083333   9 t-inv F
 -0.166667 -0.250000  0.000000    0.02083333  10 t-inv F
  0.166667 -0.250000  0.000000    0.02083333  10 t-inv F
 -0.166667  0.250000  0.000000    0.02083333  10 t-inv F
 -0.333333 -0.250000  0.000000    0.02083333  11 t-inv F
  0.333333 -0.250000  0.000000    0.02083333  11 t-inv F
 -0.333333  0.250000  0.000000    0.02083333  11 t-inv F
 -0.500000 -0.250000  0.000000    0.02083333  12 t-inv F
  0.000000 -0.375000  0.000000    0.02083333  13 t-inv F
 -0.166667 -0.375000  0.000000    0.02083333  14 t-inv F
  0.166667 -0.375000  0.000000    0.02083333  14 t-inv F
 -0.166667  0.375000  0.000000    0.02083333  14 t-inv F
 -0.333333 -0.375000  0.000000    0.02083333  15 t-inv F
  0.333333 -0.375000  0.000000    0.02083333  15 t-inv F
 -0.333333  0.375000  0.000000    0.02083333  15 t-inv F
[...]
 for species   3 augmentation radius   0.795 (default was   0.699)
       energy cutoff for augmentation   2000.0

 real space projection operators:
  max/ min on nodes  :        373.34        148.33

 Maximum index for augmentation-charges in exchange          352
  SETUP_FOCK is finished

 Broyden mixing: mesh for mixing (old mesh)
   NGX = 31   NGY = 23   NGZ = 41
  (NGX  = 96   NGY  = 72   NGZ  =128)
  gives a total of  29233 points

 charge density for first step will be calculated from the start-wavefunctions

 Maximum index for non-local projection operator          361
 Maximum index for augmentation-charges          595 (set IRDMAX)

 initial charge from wavefunction
 First call to EWALD:  gamma=   0.210
 Maximum number of real-space cells 3x 4x 2
 Maximum number of reciprocal cells 3x 2x 4

--------------------------------------- Iteration      1(   1)  ---------------------------------------

 eigenvalue-minimisations  :     0
 total energy-change (2. order) :-0.1146100E+03  (-0.2783595E+02)
 number of electron     144.0000019 magnetization
 augmentation part      -15.0589413 magnetization

 Free energy of the ion-electron system (eV)
  alpha Z        PSCENC =       557.68175139
  Ewald energy   TEWEN  =     -6358.65290410
  -Hartree energ DENC   =     -1337.90342711
  -exchange      EXHF   =       263.28851916
  -V(xc)+E(xc)   XCENC  =       182.27216892
  PAW double counting   =      4076.76264960    -3965.34091847
  entropy T*S    EENTRO =        -0.00000000
  eigenvalues    EBANDS =     -1094.83656364
  atomic energy  EATOM  =      7562.11872291
  free energy    TOTEN  =      -114.61000135 eV

  energy without entropy =     -114.61000135  energy(sigma->0) =     -114.61000135
  exchange ACFDT corr.  =        -0.00000000  see jH, gK, PRB 81, 115126

[...]

--------------------------------------- Iteration      1(  36)  ---------------------------------------

 eigenvalue-minimisations  :     0
 total energy-change (2. order) :-0.7724752E-06  (-0.9257000E-06)
 number of electron     144.0000018 magnetization
 augmentation part      -14.9442044 magnetization

 Free energy of the ion-electron system (eV)
  alpha Z        PSCENC =       557.68175139
  Ewald energy   TEWEN  =     -6358.65290410
  -Hartree energ DENC   =     -1328.08573614
  -exchange      EXHF   =       267.52973126
  -V(xc)+E(xc)   XCENC  =       182.03704598
  PAW double counting   =      4062.51933899    -3951.67939189
  entropy T*S    EENTRO =        -0.00000000
  eigenvalues    EBANDS =     -1150.10982887
  atomic energy  EATOM  =      7562.11872291
  free energy    TOTEN  =      -156.64126986 eV

  energy without entropy =     -156.64126986  energy(sigma->0) =     -156.64126986
  exchange ACFDT corr.  =        -0.00000000  see jH, gK, PRB 81, 115126

  average scaling for gradient   0.9221

 average (electrostatic) potential at core
  the test charge radii are     1.2192  0.9892  0.6991
  (the norm of the test charge is              1.0000)
       1 -33.1359       2 -33.1359       3 -33.1359       4 -33.1359       5 -33.1520
       6 -33.1520       7 -33.1520       8 -33.1520       9 -81.6170      10 -81.6170
      11 -81.6170      12 -81.6170      13 -81.6170      14 -81.6170      15 -81.6170
      16 -81.6170      17 -47.6995      18 -47.6995      19 -47.6995      20 -47.6995
      21 -47.9063      22 -47.9064      23 -47.9064      24 -47.9064

 E-fermi :   2.6502     XC(G=0):  -7.3589     alpha+bet :-10.2099

 k-point     1 :       0.0000    0.0000    0.0000
  band No.  band energies     occupation
      1     -26.7603      2.00000
      2     -26.7420      2.00000
      3     -26.7211      2.00000
      4     -26.7173      2.00000
      5     -26.7115      2.00000
      6     -26.7067      2.00000
      7     -26.6840      2.00000
      8     -26.6815      2.00000
      9     -14.5224      2.00000
     10     -14.5118      2.00000
     11     -14.4644      2.00000
     12     -14.4252      2.00000
     13     -11.3638      2.00000
     14     -11.3572      2.00000
     15     -11.3561      2.00000
     16     -11.3145      2.00000
     17     -11.2491      2.00000
     18     -11.2327      2.00000
     19     -11.1475      2.00000
     20     -11.1317      2.00000
     21     -11.1042      2.00000
     22     -11.0981      2.00000
     23     -11.0735      2.00000
     24     -11.0719      2.00000
     25     -11.0298      2.00000
     26     -11.0025      2.00000
     27     -10.9996      2.00000
     28     -10.9890      2.00000
     29     -10.9473      2.00000
     30     -10.9311      2.00000
     31     -10.9088      2.00000
     32     -10.8946      2.00000
     33     -10.8767      2.00000
     34     -10.8717      2.00000
     35     -10.8528      2.00000
     36     -10.8202      2.00000
     37      -5.4305      2.00000
     38      -5.2499      2.00000
     39      -5.2223      2.00000
     40      -5.0901      2.00000
     41      -4.7876      2.00000
     42      -4.6438      2.00000
     43      -4.6379      2.00000
     44      -4.6027      2.00000
     45      -4.5320      2.00000
     46      -4.4847      2.00000
     47      -4.4362      2.00000
     48      -4.1560      2.00000
     49      -2.0211      2.00000
     50      -1.0178      2.00000
     51      -0.9993      2.00000
     52      -0.9461      2.00000
     53      -0.3686      2.00000
     54      -0.1875      2.00000
     55      -0.1778      2.00000
     56       0.1635      2.00000
     57       0.3140      2.00000
     58       0.3817      2.00000
     59       0.4019      2.00000
     60       0.5586      2.00000
[...]
     74       4.7669      0.00000
     75       4.8487      0.00000
     76       4.9494      0.00000
     77       5.1329      0.00000
     78       5.2558      0.00000
     79       5.5850      0.00000
     80       5.5984      0.00000
     81       5.7726      0.00000
     82       6.0799      0.00000
     83       6.1186      0.00000
     84       6.3979      0.00000
     85       6.6623      0.00000
     86       6.6703      0.00000
     87       6.6844      0.00000
     88       6.7657      0.00000

[...]

 k-point    20 :       0.5000    0.5000    0.0000
  band No.  band energies     occupation
      1     -26.7231      2.00000
      2     -26.7231      2.00000
      3     -26.7231      2.00000
      4     -26.7231      2.00000
      5     -26.7072      2.00000
      6     -26.7072      2.00000
      7     -26.7072      2.00000
      8     -26.7072      2.00000
      9     -14.4935      2.00000
     10     -14.4934      2.00000
     11     -14.4934      2.00000
     12     -14.4934      2.00000
     13     -11.3341      2.00000
     14     -11.3341      2.00000
     15     -11.3341      2.00000
     16     -11.3341      2.00000
     17     -11.2361      2.00000
     18     -11.2361      2.00000
     19     -11.2361      2.00000
     20     -11.2361      2.00000
     21     -11.0903      2.00000
     22     -11.0903      2.00000
     23     -11.0903      2.00000
     24     -11.0903      2.00000
     25     -11.0119      2.00000
     26     -11.0119      2.00000
     27     -11.0119      2.00000
     28     -11.0119      2.00000
     29     -10.9448      2.00000
     30     -10.9448      2.00000
     31     -10.9448      2.00000
     32     -10.9448      2.00000
     33     -10.8003      2.00000
     34     -10.8003      2.00000
     35     -10.8003      2.00000
     36     -10.8003      2.00000
     37      -5.1962      2.00000
     38      -5.1962      2.00000
     39      -5.1962      2.00000
     40      -5.1962      2.00000
     41      -4.6869      2.00000
     42      -4.6868      2.00000
     43      -4.6868      2.00000
     44      -4.6868      2.00000
     45      -4.5531      2.00000
     46      -4.5531      2.00000
     47      -4.5531      2.00000
     48      -4.5531      2.00000
     49      -0.7865      2.00000
     50      -0.7865      2.00000
     51      -0.7865      2.00000
     52      -0.7865      2.00000
     53      -0.3640      2.00000
     54      -0.3640      2.00000
     55      -0.3640      2.00000
     56      -0.3639      2.00000
     57       0.3938      2.00000
     58       0.3938      2.00000
     59       0.3938      2.00000
     60       0.3938      2.00000
[...]
     74       4.3964      0.00000
     75       4.3964      0.00000
     76       4.3964      0.00000
     77       5.2206      0.00000
     78       5.2210      0.00000
     79       5.2220      0.00000
     80       5.2241      0.00000
     81       5.7957      0.00000
     82       5.8022      0.00000
     83       5.8173      0.00000
     84       5.8394      0.00000
     85       6.2538      0.00000
     86       6.2806      0.00000
     87       6.3656      0.00000
     88       6.4572      0.00000

 soft charge-density along one line, spin component           1
         0         1         2         3         4         5         6         7         8         9
 total charge-density along one line

------------------------ aborting loop because EDIFF is reached ----------------------------------------

 total charge

# of ion       s       p       d       tot
    1        2.009   5.599   0.320   7.929
    2        2.009   5.599   0.320   7.929
    3        2.009   5.599   0.320   7.929
    4        2.009   5.599   0.320   7.929
    5        2.007   5.594   0.314   7.915
    6        2.007   5.594   0.314   7.915
    7        2.007   5.594   0.314   7.915
    8        2.007   5.594   0.314   7.915
    9        0.802   0.913   0.000   1.716
   10        0.802   0.913   0.000   1.716
   11        0.802   0.913   0.000   1.716
   12        0.802   0.913   0.000   1.716
   13        0.803   0.912   0.000   1.715
   14        0.803   0.912   0.000   1.715
   15        0.803   0.912   0.000   1.715
   16        0.803   0.912   0.000   1.715
   17        0.904   1.465   0.000   2.368
   18        0.904   1.465   0.000   2.368
   19        0.904   1.465   0.000   2.368
   20        0.904   1.465   0.000   2.368
   21        0.901   1.461   0.000   2.362
   22        0.901   1.461   0.000   2.362
   23        0.901   1.461   0.000   2.362
   24        0.901   1.461   0.000   2.362
tot         29.706  63.776   2.538  96.020

 VOLUME and BASIS-vectors are now :
  energy-cutoff  :      500.00
  volume of cell :      601.78
      direct lattice vectors                 reciprocal lattice vectors
     8.649896326  0.000000000  0.000000000     0.115608322  0.000000000  0.000000000
     0.000000000  6.056425975  0.000000000     0.000000000  0.165113881  0.000000000
     0.000000000  0.000000000 11.487145391     0.000000000  0.000000000  0.087053830

  length of vectors
     8.649896326  6.056425975 11.487145391     0.115608322  0.165113881  0.087053830

 FORCES acting on ions:
    Electron-Ion                     Ewald-Force                    Non-Local-Force
   -.115E+02 -.525E-04 -.555E+02   0.117E+02 0.123E-04 0.546E+02   -.193E+00 0.282E-19 0.677E+00
   0.115E+02 0.427E-04 0.555E+02   -.117E+02 -.165E-04 -.546E+02   0.193E+00 -.278E-19 -.677E+00
   0.115E+02 -.151E-04 -.555E+02   -.117E+02 -.165E-04 0.546E+02   0.193E+00 -.290E-20 0.677E+00
   -.115E+02 0.590E-05 0.555E+02   0.117E+02 0.123E-04 -.546E+02   -.193E+00 -.138E-19 -.677E+00
   -.397E+02 -.387E-04 0.286E+02   0.371E+02 -.170E-04 -.285E+02   0.198E+01 -.293E-20 -.175E-01
   0.397E+02 0.270E-04 -.286E+02   -.371E+02 0.165E-04 0.285E+02   -.198E+01 -.377E-19 0.175E-01
   0.397E+02 -.444E-04 0.286E+02   -.371E+02 0.165E-04 -.285E+02   -.198E+01 -.333E-19 -.175E-01
   -.397E+02 0.412E-04 -.286E+02   0.371E+02 -.170E-04 0.285E+02   0.198E+01 -.217E-19 0.175E-01
   0.161E+02 0.559E+02 -.580E+02   -.168E+02 -.578E+02 0.596E+02   0.645E+00 0.213E+01 -.174E+01
   -.161E+02 -.559E+02 0.580E+02   0.168E+02 0.578E+02 -.596E+02   -.645E+00 -.213E+01 0.174E+01
   -.161E+02 -.559E+02 -.580E+02   0.168E+02 0.578E+02 0.596E+02   -.645E+00 -.213E+01 -.174E+01
   0.161E+02 0.559E+02 0.580E+02   -.168E+02 -.578E+02 -.596E+02   0.645E+00 0.213E+01 0.174E+01
   -.161E+02 0.559E+02 0.580E+02   0.168E+02 -.578E+02 -.596E+02   -.645E+00 0.213E+01 0.174E+01
   0.161E+02 -.559E+02 -.580E+02   -.168E+02 0.578E+02 0.596E+02   0.645E+00 -.213E+01 -.174E+01
   0.161E+02 -.559E+02 0.580E+02   -.168E+02 0.578E+02 -.596E+02   0.645E+00 -.213E+01 0.174E+01
   -.161E+02 0.559E+02 -.580E+02   0.168E+02 -.578E+02 0.596E+02   -.645E+00 0.213E+01 -.174E+01
   0.109E+03 -.425E-04 -.301E+02   -.124E+03 -.827E-05 0.273E+02   0.148E+02 0.159E-20 0.268E+01
   -.109E+03 0.322E-04 0.301E+02   0.124E+03 0.677E-05 -.273E+02   -.148E+02 -.312E-20 -.268E+01
   -.109E+03 -.409E-04 -.301E+02   0.124E+03 0.677E-05 0.273E+02   -.148E+02 -.133E-19 0.268E+01
   0.109E+03 0.340E-04 0.301E+02   -.124E+03 -.827E-05 -.273E+02   0.148E+02 0.917E-20 -.268E+01
   0.677E+02 -.903E-04 0.743E+02   -.751E+02 0.747E-05 -.863E+02   0.738E+01 -.419E-18 0.117E+02
   -.677E+02 0.827E-04 -.743E+02   0.751E+02 -.905E-05 0.863E+02   -.738E+01 0.845E-19 -.117E+02
   -.677E+02 -.716E-04 0.743E+02   0.751E+02 -.905E-05 -.863E+02   -.738E+01 -.302E-17 0.117E+02
   0.677E+02 0.620E-04 -.743E+02   -.751E+02 0.747E-05 0.863E+02   0.738E+01 -.106E-17 -.117E+02
   0.666E-04 -.699E-04 -.329E-03   -.142E-13 0.278E-13 -.568E-13   -.888E-15 0.440E-15 0.000E+00

 POSITION                                       TOTAL-FORCE (eV/Angst)
      8.39286      1.51411      7.46878         0.004599      0.000000     -0.020826
      0.25704      4.54232      4.01837        -0.004599     -0.000000      0.020826
      4.58199      4.54232      1.72521        -0.004599      0.000000     -0.020826
      4.06791      1.51411      9.76194         0.004599      0.000000      0.020826
      1.06853      4.54232     10.65136        -0.139294      0.000000     -0.005490
      7.58136      1.51411      0.83578         0.139294      0.000000      0.005490
      3.25642      1.51411      4.90779         0.139294     -0.000000     -0.005490
      5.39348      4.54232      6.57936        -0.139294      0.000000      0.005490
      1.86798      0.34266      1.90122         0.003195      0.393965     -0.210356
      6.78192      5.71377      9.58593        -0.003195     -0.393965      0.210356
      2.45697      5.71377      7.64479        -0.003195     -0.393965     -0.210356
      6.19292      0.34266      3.84235         0.003195      0.393965      0.210356
      6.78192      3.37087      9.58593        -0.003195      0.393965      0.210356
      1.86798      2.68555      1.90122         0.003195     -0.393965     -0.210356
      6.19292      2.68555      3.84235         0.003195     -0.393965      0.210356
      2.45697      3.37087      7.64479        -0.003195      0.393965     -0.210356
      1.21606      4.54232      6.58737         0.399381     -0.000000     -0.003735
      7.43384      1.51411      4.89978        -0.399381      0.000000      0.003735
      3.10889      1.51411      0.84379        -0.399381     -0.000000     -0.003735
      5.54100      4.54232     10.64335         0.399381      0.000000      0.003735
      1.77700      1.51411      0.26069         0.319136     -0.000000      0.381001
      6.87290      4.54232     11.22646        -0.319136      0.000000     -0.381001
      2.54795      4.54232      6.00426        -0.319136     -0.000000      0.381001
      6.10194      1.51411      5.48289         0.319136      0.000000     -0.381001
    total drift:                                0.000067     -0.000070     -0.000329

  FREE ENERGIE OF THE ION-ELECTRON SYSTEM (eV)
  free  energy   TOTEN  =      -156.64126986 eV

  energy  without entropy=     -156.64126986  energy(sigma->0) =     -156.64126986

 total charge

# of ion       s       p       d       tot
    1        2.009   5.599   0.320   7.929
    2        2.009   5.599   0.320   7.929
    3        2.009   5.599   0.320   7.929
    4        2.009   5.599   0.320   7.929
    5        2.007   5.594   0.314   7.915
    6        2.007   5.594   0.314   7.915
    7        2.007   5.594   0.314   7.915
    8        2.007   5.594   0.314   7.915
    9        0.802   0.913   0.000   1.716
   10        0.802   0.913   0.000   1.716
   11        0.802   0.913   0.000   1.716
   12        0.802   0.913   0.000   1.716
   13        0.803   0.912   0.000   1.715
   14        0.803   0.912   0.000   1.715
   15        0.803   0.912   0.000   1.715
   16        0.803   0.912   0.000   1.715
   17        0.904   1.465   0.000   2.368
   18        0.904   1.465   0.000   2.368
   19        0.904   1.465   0.000   2.368
   20        0.904   1.465   0.000   2.368
   21        0.901   1.461   0.000   2.362
   22        0.901   1.461   0.000   2.362
   23        0.901   1.461   0.000   2.362
   24        0.901   1.461   0.000   2.362
tot         29.706  63.776   2.538  96.020