 vasp.5.4.4.18Apr17-6-g9f103f2a35 (build Nov 21 2017 15:30:27) complex

 executed on             LinuxIFC date 2020.09.15  06:50:55

 INCAR:
 POTCAR:   PAW Ba_sv 17Apr2000
 POTCAR:   PAW Si 02Apr1999

 POTCAR:   PAW Ba_sv 17Apr2000
   VRHFIN =Ba: s2p6s2

   TITEL  = PAW Ba_sv 17Apr2000
   POMASS =  137.327; ZVAL   =   10.000    mass and valenz
   ENMAX  =  186.981; ENMIN  =  140.236 eV
   QCUT   =   -3.707; QGAM   =    7.414    optimization parameters

   Description
     l     E      TYP  RCUT    TYP  RCUT
     0   .000     23  2.800
     0   .000     23  2.800
     1   .000     23  2.700
     1  2.000     23  2.700
     2   .000     23  2.700
     2   .000     23  2.700

 POTCAR:   PAW Si 02Apr1999
   VRHFIN =Si: s2p2

   TITEL  = PAW Si 02Apr1999
   POMASS =   28.085; ZVAL   =    4.000    mass and valenz
   ENMAX  =  245.704; ENMIN  =  184.278 eV
   QCUT   =   -4.250; QGAM   =    8.499    optimization parameters

   Description
     l     E      TYP  RCUT    TYP  RCUT
     0   .000     23  1.900
     0   .000     23  1.900
     1   .000     23  1.900
     1   .000     23  1.900
     2   .000      7  1.900

 Optimization of the real space projectors (new method)

 maximal supplied QI-value         = 13.42
 optimisation between [QCUT,QGAM] = [ 11.40, 22.81] = [ 36.42,145.68] Ry
 Optimized for a Real-space Cutoff    1.56 Angstroem

   l    n(q)    QCUT    max X(q) W(low)/X(q) W(high)/X(q)  e(spline)
   0     11    11.404     7.180    0.12E-04    0.23E-04    0.91E-07
   0     11    11.404    14.700    0.33E-04    0.82E-04    0.45E-06
   1     10    11.404     3.780    0.19E-04    0.22E-04    0.42E-07
   1     10    11.404     4.341    0.22E-03    0.98E-04    0.21E-06
   2     10    11.404     5.806    0.81E-04    0.60E-05    0.26E-06
   2     10    11.404    65.524    0.41E-03    0.30E-04    0.12E-05
 Optimization of the real space projectors (new method)

 maximal supplied QI-value         = 19.84
 optimisation between [QCUT,QGAM] = [ 11.31, 22.82] = [ 35.82,145.81] Ry
 Optimized for a Real-space Cutoff    1.16 Angstroem

   l    n(q)    QCUT    max X(q) W(low)/X(q) W(high)/X(q)  e(spline)
   0      8    11.310     8.540    0.14E-04    0.11E-04    0.43E-08
   0      8    11.310   104.916    0.28E-03    0.31E-03    0.39E-07
   1      7    11.310     5.806    0.79E-05    0.47E-04    0.19E-07
   1      7    11.310    72.249    0.28E-03    0.28E-03    0.75E-07
 PAW Ba_sv 17Apr2000                    :
 PAW Si 02Apr1999                       :

 POSCAR: ba8 si16
  positions in direct lattice
  velocities in cartesian coordinates
 exchange correlation table for  LEXCH =        2
   RHO(1)=    0.500       N(1)  =     2000
   RHO(2)=  100.500       N(2)  =     4000

 ion  position               nearest neighbor table
   1  0.006  0.250  0.708-  21 3.36  16 3.45  11 3.45  17 3.64  17 3.64   5 4.36   5 4.36   7 4.69

   2  0.380  0.750  0.292-  22 3.36  12 3.45  15 3.45  18 3.64  18 3.64   6 4.36   6 4.36   8 4.69

   3  0.182  0.750  0.185-  20 3.28   9 3.45  14 3.45  12 3.53  15 3.53  22 3.53  19 3.65  19 3.65
                            23 3.83   5 4.27   7 4.36   7 4.36
   4  0.204  0.250  0.815-  19 3.28  13 3.45  10 3.45  16 3.53  11 3.53  21 3.53  20 3.65  20 3.65
                            24 3.83   6 4.27   8 4.36   8 4.36
   5  0.060  0.750  0.917-   9 3.42  14 3.42  11 3.43  16 3.43  21 3.44  21 3.44  17 3.66   3 4.27
                             1 4.36   1 4.36
   6  0.326  0.250  0.083-  13 3.42  10 3.42  15 3.43  12 3.43  22 3.44  22 3.44  18 3.66   4 4.27
                             2 4.36   2 4.36
   7  0.128  0.250  0.393-  14 3.42   9 3.42  23 3.56  23 3.56  19 3.68  15 3.70  12 3.70  24 3.76
                            16 3.84  11 3.84   3 4.36   3 4.36   1 4.69
   8  0.258  0.750  0.607-  10 3.42  13 3.42  24 3.56  24 3.56  20 3.68  11 3.70  16 3.70  23 3.76
                            12 3.84  15 3.84   4 4.36   4 4.36   2 4.69
   9  0.073  0.074  0.141-  14 2.39  21 2.41  19 2.44   5 3.42   7 3.42   3 3.45
  10  0.313  0.926  0.859-  13 2.39  22 2.41  20 2.44   6 3.42   8 3.42   4 3.45
  11  0.115  0.928  0.664-  16 2.41  23 2.42  17 2.43   5 3.43   1 3.45   4 3.53   8 3.70   7 3.84

[...]

  17  0.031  0.750  0.607-  11 2.43  16 2.43  23 2.45   1 3.64   1 3.64   5 3.66
  18  0.355  0.250  0.393-  15 2.43  12 2.43  24 2.45   2 3.64   2 3.64   6 3.66
  19  0.157  0.250  0.081-  21 2.42  14 2.44   9 2.44   4 3.28   3 3.65   3 3.65   7 3.68
  20  0.229  0.750  0.919-  22 2.42  10 2.44  13 2.44   3 3.28   4 3.65   4 3.65   8 3.68
  21  0.074  0.250  0.960-  14 2.41   9 2.41  19 2.42   1 3.36   5 3.44   5 3.44   4 3.53
  22  0.311  0.750  0.040-  10 2.41  13 2.41  20 2.42   2 3.36   6 3.44   6 3.44   3 3.53
  23  0.113  0.750  0.483-  11 2.42  16 2.42  17 2.45   7 3.56   7 3.56   8 3.76   3 3.83
  24  0.272  0.250  0.517-  15 2.42  12 2.42  18 2.45   8 3.56   8 3.56   7 3.76   4 3.83

  LATTYP: Found a simple orthorhombic cell.
 ALAT       =     6.7778496742
 B/A-ratio  =     1.7117734747
 C/A-ratio  =     3.5423429602

  Lattice vectors:

 A1 = (   0.0000000000,   6.7778496742,   0.0000000000)
 A2 = (   0.0000000000,   0.0000000000, -11.6021432877)
 A3 = ( -24.0094680786,   0.0000000000,   0.0000000000)

Analysis of symmetry for initial positions (statically):
 Subroutine PRICEL returns:
 Original cell was already a primitive cell.

 Routine SETGRP: Setting up the symmetry group for a
 simple orthorhombic supercell.

 Subroutine GETGRP returns: Found  4 space group operations
 (whereof  1 operations were pure point group operations)
 out of a pool of  8 trial point group operations.

The static configuration has the point symmetry C_1 .
 The point group associated with its full space group is C_2h.

Analysis of symmetry for dynamics (positions and initial velocities):
 Subroutine PRICEL returns:
 Original cell was already a primitive cell.

[...]

The dynamic configuration has the point symmetry C_1 .
 The point group associated with its full space group is C_2h.

Analysis of constrained symmetry for selective dynamics:
 Subroutine PRICEL returns:
 Original cell was already a primitive cell.

 Routine SETGRP: Setting up the symmetry group for a
 simple orthorhombic supercell.

 Subroutine GETGRP returns: Found  4 space group operations
 (whereof  1 operations were pure point group operations)
 out of a pool of  8 trial point group operations.

The constrained configuration has the point symmetry C_1 .
 The point group associated with its full space group is C_2h.

 Subroutine INISYM returns: Found  4 space group operations
 (whereof  1 operations are pure point group operations),
 and found     1 'primitive' translations

 KPOINTS: k-density: 8.0

Automatic generation of k-mesh.
Space group operators:
 irot       det(A)        alpha          n_x          n_y          n_z        tau_x        tau_y        tau_z
    1     1.000000     0.000000     1.000000     0.000000     0.000000     0.000000     0.000000     0.000000
    2    -1.000000     0.000000     1.000000     0.000000     0.000000    -0.614341     0.000000     0.000000
    3     1.000000   180.000000     0.000000     1.000000     0.000000    -0.614341     0.500000     0.000000
    4    -1.000000   180.000000     0.000000     1.000000     0.000000     0.000000     0.500000     0.000000

 Subroutine IBZKPT returns following result:

 Found     15 irreducible k-points:

 Following reciprocal coordinates:
            Coordinates               Weight
  0.000000  0.000000  0.000000      1.000000
  0.000000  0.125000  0.000000      2.000000
  0.000000  0.250000  0.000000      2.000000
  0.000000  0.375000  0.000000      2.000000
  0.000000  0.500000  0.000000      1.000000
  0.000000  0.000000  0.200000      2.000000
  0.000000  0.125000  0.200000      4.000000
  0.000000  0.250000  0.200000      4.000000
  0.000000  0.375000  0.200000      4.000000
  0.000000  0.500000  0.200000      2.000000
  0.000000  0.000000  0.400000      2.000000
  0.000000  0.125000  0.400000      4.000000
  0.000000  0.250000  0.400000      4.000000
  0.000000  0.375000  0.400000      4.000000
  0.000000  0.500000  0.400000      2.000000

 Following cartesian coordinates:
            Coordinates               Weight
  0.000000  0.000000  0.000000      1.000000
  0.000000  0.018442  0.000000      2.000000
  0.000000  0.036885  0.000000      2.000000
  0.000000  0.055327  0.000000      2.000000
  0.000000  0.073770  0.000000      1.000000
  0.000000  0.000000  0.017238      2.000000
  0.000000  0.018442  0.017238      4.000000
  0.000000  0.036885  0.017238      4.000000
  0.000000  0.055327  0.017238      4.000000
  0.000000  0.073770  0.017238      2.000000
  0.000000  0.000000  0.034476      2.000000
  0.000000  0.018442  0.034476      4.000000
  0.000000  0.036885  0.034476      4.000000
  0.000000  0.055327  0.034476      4.000000
  0.000000  0.073770  0.034476      2.000000

 TETIRR: Found    108 inequivalent tetrahedra from      240

 SYSTEM =  unknown system
 POSCAR =  ba8 si16

 Startparameter for this run:
   NWRITE =      2    write-flag & timer
   PREC   = normal    normal or accurate (medium, high low for compatibility)
   ISTART =      0    job   : 0-new  1-cont  2-samecut
   ICHARG =      2    charge: 1-file 2-atom 10-const
   ISPIN  =      1    spin polarized calculation?
   LNONCOLLINEAR =      F non collinear calculations
   LSORBIT =      F    spin-orbit coupling
   INIWAV =      1    electr: 0-lowe 1-rand  2-diag
   LASPH  =      F    aspherical Exc in radial PAW
   METAGGA=      F    non-selfconsistent MetaGGA calc.

 Electronic Relaxation 1
   ENCUT  =  500.0 eV  36.75 Ry    6.06 a.u.  43.77 12.36 21.15*2*pi/ulx,y,z
   ENINI  =  500.0     initial cutoff
   ENAUG  =  351.2 eV  augmentation charge cutoff
   NELM   =    100;   NELMIN=  2; NELMDL= -5     # of ELM steps
   EDIFF  = 0.1E-05   stopping-criterion for ELM
   LREAL  =      T    real-space projection
   NLSPLINE    = F    spline interpolate recip. space projectors
   LCOMPAT=      F    compatible to vasp.4.4
   GGA_COMPAT  = T    GGA compatible to vasp.4.4-vasp.4.6
   LMAXPAW     = -100 max onsite density
   LMAXMIX     =    2 max onsite mixed and CHGCAR
   VOSKOWN=      0    Vosko Wilk Nusair interpolation
   ROPT   =   -0.00050  -0.00050
 Ionic relaxation
   EDIFFG = -.1E-02   stopping-criterion for IOM
   NSW    =      0    number of steps for IOM
   NBLOCK =      1;   KBLOCK =      1    inner block; outer block
   IBRION =     -1    ionic relax: 0-MD 1-quasi-New 2-CG
   NFREE  =      0    steps in history (QN), initial steepest desc. (CG)
   ISIF   =      2    stress and relaxation
   IWAVPR =     10    prediction:  0-non 1-charg 2-wave 3-comb
   ISYM   =      2    0-nonsym 1-usesym 2-fastsym
   LCORR  =      T    Harris-Foulkes like correction to forces

   POTIM  = 0.3000    time-step for ionic-motion
   TEIN   =    0.0    initial temperature
   TEBEG  =    0.0;   TEEND  =   0.0 temperature during run
   SMASS  =  -3.00    Nose mass-parameter (am)
   estimated Nose-frequenzy (Omega)   =  0.10E-29 period in steps =****** mass=  -0.132E-25a.u.
   SCALEE = 1.0000    scale energy and forces
   NPACO  =    256;   APACO  = 16.0  distance and # of slots for P.C.
[...]

 BZINTS: Fermi energy:  6.954115;144.000000 electrons
         Band energy:-494.903958;  BLOECHL correction: -0.027166

 eigenvalue-minimisations  :  2776
 total energy-change (2. order) : 0.1165254E+04  (-0.4800526E+04)
 number of electron     144.0000000 magnetization
 augmentation part      144.0000000 magnetization

 Free energy of the ion-electron system (eV)
  alpha Z        PSCENC =       166.34077906
  Ewald energy   TEWEN  =     11845.94338130
  -Hartree energ DENC   =    -17973.83519530
  -exchange      EXHF   =         0.00000000
  -V(xc)+E(xc)   XCENC  =        46.39536608
  PAW double counting   =      3711.26622449    -3423.01674647
  entropy T*S    EENTRO =         0.00000000
  eigenvalues    EBANDS =      -494.90395817
  atomic energy  EATOM  =      7287.06411261
  Solvation  Ediel_sol  =         0.00000000
  free energy    TOTEN  =      1165.25396359 eV

  energy without entropy =     1165.25396359  energy(sigma->0) =     1165.25396359

[...]

 eigenvalue-minimisations  :  3760
 total energy-change (2. order) :-0.1116983E+04  (-0.1086488E+04)
 number of electron     144.0000000 magnetization
 augmentation part      144.0000000 magnetization

[...]

 Broyden mixing:
  rms(total) = 0.95328E+00    rms(broyden)= 0.95327E+00
  rms(prec ) = 0.12306E+01
  weight for this iteration     100.00

[...]

 eigenvalues of (default mixing * dielectric matrix)
  average eigenvalue GAMMA=   1.5213
  1.5213

[...]

 eigenvalue-minimisations  :  3272
 total energy-change (2. order) : 0.1931755E-01  (-0.5212998E-02)
 number of electron     144.0000002 magnetization
 augmentation part      -17.0749211 magnetization

[...]

 Broyden mixing:
  rms(total) = 0.94921E-05    rms(broyden)= 0.94921E-05
  rms(prec ) = 0.14866E-04
  weight for this iteration     100.00

 eigenvalues of (default mixing * dielectric matrix)
  average eigenvalue GAMMA=   2.3613
  9.0782  7.0617  4.3372  3.4977  2.6787  2.4948  1.8632  1.8632  0.9083  0.9083
  1.3193  1.3193  1.2562  1.2562  1.0621  1.0621  0.9553  0.9553  0.9877

[...]

--------------------------------------- Iteration      1(  25)  ---------------------------------------

 BZINTS: Fermi energy: -0.622367;144.000000 electrons
         Band energy:***********;  BLOECHL correction:  0.000000

 eigenvalue-minimisations  :  1896
 total energy-change (2. order) :-0.8403649E-06  (-0.1384674E-07)
 number of electron     144.0000002 magnetization
 augmentation part      -17.0724915 magnetization

 Free energy of the ion-electron system (eV)
  alpha Z        PSCENC =       166.34077906
  Ewald energy   TEWEN  =     11845.94338130
  -Hartree energ DENC   =    -18277.84286832
  -exchange      EXHF   =         0.00000000
  -V(xc)+E(xc)   XCENC  =        53.17103499
  PAW double counting   =      3841.45728851    -3569.94159454
  entropy T*S    EENTRO =         0.00000000
  eigenvalues    EBANDS =     -1460.67381455
  atomic energy  EATOM  =      7287.06411261
  Solvation  Ediel_sol  =         0.00000000
  free energy    TOTEN  =      -114.48168095 eV

  energy without entropy =     -114.48168095  energy(sigma->0) =     -114.48168095

 average (electrostatic) potential at core
  the test charge radii are     1.2192  0.9892
  (the norm of the test charge is              1.0000)
       1 -41.1505       2 -41.1505       3 -39.5133       4 -39.5133       5 -40.0874
       6 -40.0874       7 -40.1954       8 -40.1954       9 -90.5601      10 -90.5601
      11 -90.9611      12 -90.9611      13 -90.5601      14 -90.5601      15 -90.9611
      16 -90.9611      17 -91.0333      18 -91.0333      19 -90.5785      20 -90.5785
      21 -90.7052      22 -90.7051      23 -90.9709      24 -90.9709

 E-fermi :  -0.6224     XC(G=0):  -4.0943     alpha+bet : -3.8221

 k-point     1 :       0.0000    0.0000    0.0000
  band No.  band energies     occupation
      1     -29.6913      2.00000
      2     -29.6913      2.00000
      3     -28.7321      2.00000
      4     -28.7303      2.00000
      5     -28.6601      2.00000
      6     -28.6600      2.00000
      7     -28.0987      2.00000
      8     -28.0977      2.00000
      9     -14.9671      2.00000
     10     -14.9666      2.00000
     11     -14.9009      2.00000
     12     -14.9007      2.00000
     13     -14.8265      2.00000
     14     -14.8265      2.00000
     15     -14.0314      2.00000
     16     -14.0295      2.00000
     17     -14.0271      2.00000
     18     -14.0084      2.00000
     19     -13.9767      2.00000
     20     -13.9613      2.00000
     21     -13.9489      2.00000
     22     -13.9182      2.00000
     23     -13.8958      2.00000
     24     -13.8927      2.00000
     25     -13.8695      2.00000
     26     -13.8672      2.00000
     27     -13.4285      2.00000
     28     -13.3959      2.00000
     29     -13.3707      2.00000
     30     -13.3578      2.00000
     31     -13.3450      2.00000
     32     -13.3337      2.00000
     33     -11.2798      2.00000
     34     -11.2235      2.00000
     35     -10.9388      2.00000
     36     -10.9152      2.00000
     37      -6.5455      2.00000
     38      -6.5108      2.00000
     39      -6.3565      2.00000
     40      -6.3029      2.00000
     41      -6.2788      2.00000
     42      -6.2773      2.00000
     43      -6.1585      2.00000
     44      -6.0843      2.00000
     45      -5.9902      2.00000
     46      -5.8412      2.00000
     47      -5.8174      2.00000
     48      -5.8097      2.00000
     49      -3.7103      2.00000
     50      -3.2405      2.00000
     51      -2.7547      2.00000
     52      -2.7215      2.00000
     53      -2.6177      2.00000
     54      -2.3374      2.00000
     55      -2.1156      2.00000
     56      -2.0319      2.00000
     57      -1.9563      2.00000
     58      -1.9403      2.00000
     59      -1.9099      2.00000
     60      -1.8290      2.00000
[...]
     74       0.3119      0.00000
     75       0.4061      0.00000
     76       0.5226      0.00000
     77       0.5330      0.00000
     78       0.7056      0.00000
     79       0.7895      0.00000
     80       1.0091      0.00000
     81       1.0957      0.00000
     82       1.1044      0.00000
     83       1.2005      0.00000
     84       1.2300      0.00000
     85       1.2401      0.00000
     86       1.3071      0.00000
     87       1.4073      0.00000
     88       1.4810      0.00000

[...]

 k-point    15 :       0.0000    0.5000    0.4000
  band No.  band energies     occupation
      1     -29.6912      2.00000
      2     -29.6912      2.00000
      3     -28.7310      2.00000
      4     -28.7310      2.00000
      5     -28.6601      2.00000
      6     -28.6601      2.00000
      7     -28.0983      2.00000
      8     -28.0983      2.00000
      9     -14.9633      2.00000
     10     -14.9633      2.00000
     11     -14.9069      2.00000
     12     -14.9069      2.00000
     13     -14.8415      2.00000
     14     -14.8414      2.00000
     15     -14.0351      2.00000
     16     -14.0351      2.00000
     17     -14.0155      2.00000
     18     -14.0155      2.00000
     19     -13.9865      2.00000
     20     -13.9865      2.00000
     21     -13.9342      2.00000
     22     -13.9342      2.00000
     23     -13.8923      2.00000
     24     -13.8923      2.00000
     25     -13.8884      2.00000
     26     -13.8884      2.00000
     27     -13.4099      2.00000
     28     -13.4099      2.00000
     29     -13.3635      2.00000
     30     -13.3635      2.00000
     31     -13.3383      2.00000
     32     -13.3383      2.00000
     33     -11.2037      2.00000
     34     -11.2037      2.00000
     35     -10.8718      2.00000
     36     -10.8718      2.00000
     37      -6.5891      2.00000
     38      -6.5891      2.00000
     39      -6.3099      2.00000
     40      -6.3099      2.00000
     41      -6.2559      2.00000
     42      -6.2559      2.00000
     43      -5.9933      2.00000
     44      -5.9933      2.00000
     45      -5.9579      2.00000
     46      -5.9579      2.00000
     47      -5.8544      2.00000
     48      -5.8544      2.00000
     49      -2.8603      2.00000
     50      -2.8603      2.00000
     51      -2.7045      2.00000
     52      -2.7044      2.00000
     53      -2.3348      2.00000
     54      -2.3348      2.00000
     55      -2.2592      2.00000
     56      -2.2592      2.00000
     57      -2.1061      2.00000
     58      -2.1061      2.00000
     59      -1.8493      2.00000
     60      -1.8493      2.00000
[...]
     74       0.1125      0.00000
     75       0.3365      0.00000
     76       0.3365      0.00000
     77       0.5141      0.00000
     78       0.5141      0.00000
     79       0.6765      0.00000
     80       0.6765      0.00000
     81       0.7506      0.00000
     82       0.7506      0.00000
     83       1.0969      0.00000
     84       1.0969      0.00000
     85       1.3176      0.00000
     86       1.3176      0.00000
     87       1.4190      0.00000
     88       1.4190      0.00000

 soft charge-density along one line, spin component           1
         0         1         2         3         4         5         6         7         8         9
 total charge-density along one line

------------------------ aborting loop because EDIFF is reached ----------------------------------------

  FORCE on cell =-STRESS in cart. coord.  units (eV):
  Direction    XX          YY          ZZ          XY          YZ          ZX
  Alpha Z   166.34078   166.34078   166.34078
  Ewald  -19553.94553 15984.22474 15415.65065    -0.00002     0.00000   175.62999
  Hartree-16490.82867 17612.41087 17156.25848     0.00000    -0.00000   134.70655
  E(xc)    -456.92833  -457.33196  -457.29529    -0.00000    -0.00000     0.07776
  Local   34629.28893-35032.66898-34001.14854     0.00001    -0.00000  -308.92726
  n-local   344.55138   345.43596   346.48388     0.06627    -0.20937    -1.35646
  augment  -171.41442  -171.88966  -171.90066    -0.00000    -0.00000     0.28183
  Kinetic  1516.30100  1533.39516  1527.96160    -0.05806    -0.82762    -0.47542
  Fock        0.00000     0.00000     0.00000     0.00000     0.00000     0.00000
  Total     -16.63485   -20.08309   -17.64909     0.00000     0.00000    -0.06301
  in kB     -14.11617   -17.04231   -14.97684     0.00000     0.00000    -0.05347

 VOLUME and BASIS-vectors are now :
  energy-cutoff  :      500.00
  volume of cell :     1888.05
      direct lattice vectors                 reciprocal lattice vectors
    24.009468079  0.000000000  0.000000000     0.041650236  0.000000000  0.000000000
     0.000000000  6.777849674  0.000000000     0.000000000  0.147539419  0.000000000
     0.000000000  0.000000000 11.602143288     0.000000000  0.000000000  0.086190971

  length of vectors
    24.009468079  6.777849674 11.602143288     0.041650236  0.147539419  0.086190971

 FORCES acting on ions
    electron-ion (+dipol)            ewald-force                    non-local-force                 convergence-correction
   0.781E+03 0.101E-04 0.505E+02   -.776E+03 0.101E-04 -.496E+02   -.421E+01 -.184E-18 -.906E+00   -.420E-04 -.922E-09 0.431E-04
   -.781E+03 -.615E-04 -.505E+02   0.776E+03 -.130E-04 0.496E+02   0.421E+01 0.105E-18 0.906E+00   0.420E-04 0.104E-08 -.431E-04
   0.865E+02 -.590E-04 -.464E+02   -.861E+02 -.187E-04 0.450E+02   -.216E+00 -.512E-19 0.134E+01   0.120E-03 0.157E-08 -.946E-04
   -.865E+02 0.112E-04 0.464E+02   0.861E+02 0.131E-04 -.450E+02   0.216E+00 0.318E-19 -.134E+01   -.120E-03 -.144E-08 0.946E-04
   0.629E+03 -.596E-04 -.522E+02   -.627E+03 -.169E-04 0.525E+02   -.185E+01 -.105E-17 -.266E+00   0.296E-04 0.126E-08 -.161E-03
   -.629E+03 0.896E-05 0.522E+02   0.627E+03 0.146E-04 -.525E+02   0.185E+01 0.127E-17 0.266E+00   -.296E-04 -.117E-08 0.161E-03
   0.365E+03 0.117E-04 -.185E+02   -.363E+03 0.129E-04 0.176E+02   -.801E+00 -.137E-17 0.884E+00   0.852E-04 -.141E-08 0.580E-04
   -.365E+03 -.609E-04 0.185E+02   0.363E+03 -.128E-04 -.176E+02   0.801E+00 -.160E-17 -.884E+00   -.852E-04 0.142E-08 -.580E-04
   0.275E+03 0.382E+02 -.502E+02   -.275E+03 -.391E+02 0.506E+02   -.229E+00 0.943E+00 -.492E+00   0.562E-04 0.347E-04 -.509E-04
   -.275E+03 -.382E+02 0.502E+02   0.275E+03 0.391E+02 -.506E+02   0.229E+00 -.943E+00 0.492E+00   -.562E-04 -.347E-04 0.509E-04
   0.120E+03 -.353E+02 0.710E+01   -.120E+03 0.358E+02 -.621E+01   -.373E-01 -.561E+00 -.895E+00   -.291E-04 -.635E-04 0.314E-06
   -.120E+03 0.353E+02 -.710E+01   0.120E+03 -.358E+02 0.621E+01   0.373E-01 0.561E+00 0.895E+00   0.291E-04 0.635E-04 -.311E-06
   -.275E+03 0.382E+02 0.502E+02   0.275E+03 -.391E+02 -.506E+02   0.229E+00 0.943E+00 0.492E+00   -.562E-04 0.347E-04 0.509E-04
   0.275E+03 -.382E+02 -.502E+02   -.275E+03 0.391E+02 0.506E+02   -.229E+00 -.943E+00 -.492E+00   0.562E-04 -.347E-04 -.509E-04
   -.120E+03 -.353E+02 -.710E+01   0.120E+03 0.358E+02 0.621E+01   0.373E-01 -.561E+00 0.895E+00   0.291E-04 -.635E-04 -.311E-06
   0.120E+03 0.353E+02 0.710E+01   -.120E+03 -.358E+02 -.621E+01   -.373E-01 0.561E+00 -.895E+00   -.291E-04 0.635E-04 0.314E-06
   0.331E+03 -.516E-05 0.492E+02   -.332E+03 -.610E-05 -.495E+02   0.105E+01 -.249E-19 0.350E+00   0.557E-04 0.403E-09 0.546E-04
   -.331E+03 0.620E-05 -.492E+02   0.332E+03 0.636E-05 0.495E+02   -.105E+01 0.317E-19 -.350E+00   -.557E-04 -.398E-09 -.546E-04
   0.323E+02 0.946E-05 -.130E+02   -.312E+02 0.762E-05 0.121E+02   -.962E+00 0.464E-19 0.888E+00   0.256E-05 -.556E-09 -.200E-04
   -.323E+02 -.282E-05 0.130E+02   0.312E+02 -.725E-05 -.121E+02   0.962E+00 -.551E-19 -.888E+00   -.256E-05 0.543E-09 0.200E-04
   0.242E+03 0.436E-05 0.119E+02   -.242E+03 0.813E-05 -.126E+02   -.334E+00 0.118E-18 0.728E+00   0.343E-04 -.482E-09 -.136E-04
   -.242E+03 -.655E-05 -.119E+02   0.242E+03 -.819E-05 0.126E+02   0.334E+00 -.655E-19 -.728E+00   -.343E-04 0.479E-09 0.136E-04
   0.155E+03 -.735E-05 0.632E+02   -.155E+03 -.723E-05 -.643E+02   -.690E+00 -.900E-17 0.104E+01   -.186E-05 0.524E-09 0.110E-03
   -.155E+03 0.367E-05 -.632E+02   0.155E+03 0.712E-05 0.643E+02   0.690E+00 -.886E-17 -.104E+01   0.186E-05 -.508E-09 -.110E-03
   0.690E-04 -.207E-03 0.934E-04   -.853E-13 0.439E-15 0.284E-13   0.000E+00 -.178E-16 0.444E-15   -.613E-09 0.348E-09 -.700E-08

 POSITION                                       TOTAL-FORCE (eV/Angst)
      0.13670      1.69446      8.21463         1.016634     -0.000000     -0.000266
      9.12277      5.08339      3.38751        -1.016634     -0.000000      0.000266
      4.36803      5.08339      2.14177         0.134405     -0.000000     -0.000593
      4.89143      1.69446      9.46037        -0.134405     -0.000000      0.000593
      1.43529      5.08339     10.63385         0.798259     -0.000000     -0.000607
      7.82418      1.69446      0.96829        -0.798259     -0.000000      0.000607
      3.06944      1.69446      4.55746         0.498781     -0.000000     -0.000374
      6.19002      5.08339      7.04468        -0.498781     -0.000000      0.000374
      1.75027      0.50106      1.63309         0.042368      0.000103     -0.000062
      7.50920      6.27679      9.96905        -0.042368     -0.000103      0.000062
      2.75446      6.28688      7.69970         0.133835     -0.000101      0.000049
      6.50500      0.49097      3.90245        -0.133835      0.000101     -0.000049
      7.50920      3.88999      9.96905        -0.042368      0.000103      0.000062
      1.75027      2.88786      1.63309         0.042368     -0.000103     -0.000062
      6.50500      2.89795      3.90245        -0.133835     -0.000101     -0.000049
      2.75446      3.87990      7.69970         0.133835      0.000101      0.000049
      0.74693      5.08339      7.04277         0.033774     -0.000000      0.000005
      8.51254      1.69446      4.55938        -0.033774     -0.000000     -0.000005
      3.75780      1.69446      0.93852         0.081618     -0.000000     -0.000405
      5.50166      5.08339     10.66362        -0.081618     -0.000000      0.000405
      1.78112      1.69446     11.13922        -0.071845     -0.000000      0.000333
      7.47835      5.08339      0.46293         0.071845     -0.000000     -0.000333
      2.72362      5.08339      5.59988        -0.268362     -0.000000     -0.000386
      6.53585      1.69446      6.00226         0.268362     -0.000000      0.000386
    total drift:                                0.000069     -0.000207      0.000093

  FREE ENERGIE OF THE ION-ELECTRON SYSTEM (eV)
  free  energy   TOTEN  =      -114.48168095 eV

  energy  without entropy=     -114.48168095  energy(sigma->0) =     -114.48168095

 writing wavefunctions
 BZINTS: Fermi energy: -0.622367;144.000000 electrons
         Band energy:***********;  BLOECHL correction:  0.000000