 vasp.5.4.4.18Apr17-6-g9f103f2a35 (build Nov 21 2017 15:30:27) complex

 executed on             LinuxIFC date 2020.09.14  18:28:34

 INCAR:
 POTCAR:   PAW Ba_sv 17Apr2000
 POTCAR:   PAW Si 02Apr1999

 POTCAR:   PAW Ba_sv 17Apr2000
   VRHFIN =Ba: s2p6s2

   TITEL  = PAW Ba_sv 17Apr2000
   POMASS =  137.327; ZVAL   =   10.000    mass and valenz
   ENMAX  =  186.981; ENMIN  =  140.236 eV
   QCUT   =   -3.707; QGAM   =    7.414    optimization parameters

   Description
     l     E      TYP  RCUT    TYP  RCUT
     0   .000     23  2.800
     0   .000     23  2.800
     1   .000     23  2.700
     1  2.000     23  2.700
     2   .000     23  2.700
     2   .000     23  2.700

 POTCAR:   PAW Si 02Apr1999
   VRHFIN =Si: s2p2

   TITEL  = PAW Si 02Apr1999
   POMASS =   28.085; ZVAL   =    4.000    mass and valenz
   ENMAX  =  245.704; ENMIN  =  184.278 eV
   QCUT   =   -4.250; QGAM   =    8.499    optimization parameters

   Description
     l     E      TYP  RCUT    TYP  RCUT
     0   .000     23  1.900
     0   .000     23  1.900
     1   .000     23  1.900
     1   .000     23  1.900
     2   .000      7  1.900

 Optimization of the real space projectors (new method)

 maximal supplied QI-value         = 13.42
 optimisation between [QCUT,QGAM] = [ 11.40, 22.81] = [ 36.42,145.68] Ry
 Optimized for a Real-space Cutoff    1.56 Angstroem

   l    n(q)    QCUT    max X(q) W(low)/X(q) W(high)/X(q)  e(spline)
   0     11    11.404     7.180    0.12E-04    0.23E-04    0.91E-07
   0     11    11.404    14.700    0.33E-04    0.82E-04    0.45E-06
   1     10    11.404     3.780    0.19E-04    0.22E-04    0.42E-07
   1     10    11.404     4.341    0.22E-03    0.98E-04    0.21E-06
   2     10    11.404     5.806    0.81E-04    0.60E-05    0.26E-06
   2     10    11.404    65.524    0.41E-03    0.30E-04    0.12E-05
 Optimization of the real space projectors (new method)

 maximal supplied QI-value         = 19.84
 optimisation between [QCUT,QGAM] = [ 11.31, 22.82] = [ 35.82,145.81] Ry
 Optimized for a Real-space Cutoff    1.16 Angstroem

   l    n(q)    QCUT    max X(q) W(low)/X(q) W(high)/X(q)  e(spline)
   0      8    11.310     8.540    0.14E-04    0.11E-04    0.43E-08
   0      8    11.310   104.916    0.28E-03    0.31E-03    0.39E-07
   1      7    11.310     5.806    0.79E-05    0.47E-04    0.19E-07
   1      7    11.310    72.249    0.28E-03    0.28E-03    0.75E-07
 PAW Ba_sv 17Apr2000                    :
 PAW Si 02Apr1999                       :

 POSCAR: ba8 si16
  positions in direct lattice
  velocities in cartesian coordinates
 exchange correlation table for  LEXCH =        2
   RHO(1)=    0.500       N(1)  =     2000
   RHO(2)=  100.500       N(2)  =     4000

 ion  position               nearest neighbor table
   1  0.006  0.250  0.710-  21 3.37  16 3.46  11 3.46  17 3.65  17 3.65   5 4.36   5 4.36   7 4.68
                             4 4.71
   2  0.372  0.750  0.290-  22 3.37  12 3.46  15 3.46  18 3.65  18 3.65   6 4.36   6 4.36   8 4.68
                             3 4.71
   3  0.182  0.750  0.185-  20 3.27  22 3.38  12 3.41  15 3.41   9 3.45  14 3.45  19 3.63  19 3.63
                            23 3.82   5 4.26   7 4.37   7 4.37   2 4.71
   4  0.195  0.250  0.815-  19 3.27  21 3.38  16 3.41  11 3.41  13 3.45  10 3.45  20 3.63  20 3.63
                            24 3.82   6 4.26   8 4.37   8 4.37   1 4.71
   5  0.060  0.750  0.919-   9 3.42  14 3.42  21 3.45  21 3.45  11 3.46  16 3.46  17 3.69  20 3.87
                             3 4.26   1 4.36   1 4.36
   6  0.318  0.250  0.081-  13 3.42  10 3.42  22 3.45  22 3.45  15 3.46  12 3.46  18 3.69  19 3.87
                             4 4.26   2 4.36   2 4.36
   7  0.128  0.250  0.396-  14 3.42   9 3.42  15 3.52  12 3.52  23 3.55  23 3.55  24 3.56  19 3.67
                            16 3.81  11 3.81   3 4.37   3 4.37   1 4.68
   8  0.249  0.750  0.604-  10 3.42  13 3.42  11 3.52  16 3.52  24 3.55  24 3.55  23 3.56  20 3.67
                            12 3.81  15 3.81   4 4.37   4 4.37   2 4.68
   9  0.073  0.074  0.144-  14 2.39  21 2.41  19 2.43   7 3.42   5 3.42   3 3.45
  10  0.304  0.926  0.856-  13 2.39  22 2.41  20 2.43   8 3.42   6 3.42   4 3.45
  11  0.115  0.927  0.663-  16 2.40  23 2.42  17 2.43   4 3.41   1 3.46   5 3.46   8 3.52   7 3.81

  12  0.263  0.073  0.337-  15 2.40  24 2.42  18 2.43   3 3.41   2 3.46   6 3.46   7 3.52   8 3.81

[...]

  21  0.074  0.250  0.963-  14 2.41   9 2.41  19 2.43   1 3.37   4 3.38   5 3.45   5 3.45
  22  0.303  0.750  0.037-  10 2.41  13 2.41  20 2.43   2 3.37   3 3.38   6 3.45   6 3.45
  23  0.113  0.750  0.482-  11 2.42  16 2.42  17 2.45   7 3.55   7 3.55   8 3.56   3 3.82
  24  0.264  0.250  0.518-  15 2.42  12 2.42  18 2.45   8 3.55   8 3.55   7 3.56   4 3.82

  LATTYP: Found a simple orthorhombic cell.
 ALAT       =     6.7778496742
 B/A-ratio  =     1.7117734747
 C/A-ratio  =     3.5423429602

  Lattice vectors:

 A1 = (   0.0000000000,   6.7778496742,   0.0000000000)
 A2 = (   0.0000000000,   0.0000000000, -11.6021432877)
 A3 = ( -24.0094680786,   0.0000000000,   0.0000000000)

Analysis of symmetry for initial positions (statically):
 Subroutine PRICEL returns:
 Original cell was already a primitive cell.

 Routine SETGRP: Setting up the symmetry group for a
 simple orthorhombic supercell.

 Subroutine GETGRP returns: Found  4 space group operations
 (whereof  1 operations were pure point group operations)
 out of a pool of  8 trial point group operations.

The static configuration has the point symmetry C_1 .
 The point group associated with its full space group is C_2h.

Analysis of symmetry for dynamics (positions and initial velocities):
 Subroutine PRICEL returns:
 Original cell was already a primitive cell.

[...]

The dynamic configuration has the point symmetry C_1 .
 The point group associated with its full space group is C_2h.

Analysis of constrained symmetry for selective dynamics:
 Subroutine PRICEL returns:
 Original cell was already a primitive cell.

 Routine SETGRP: Setting up the symmetry group for a
 simple orthorhombic supercell.

 Subroutine GETGRP returns: Found  4 space group operations
 (whereof  1 operations were pure point group operations)
 out of a pool of  8 trial point group operations.

The constrained configuration has the point symmetry C_1 .
 The point group associated with its full space group is C_2h.

 Subroutine INISYM returns: Found  4 space group operations
 (whereof  1 operations are pure point group operations),
 and found     1 'primitive' translations

 KPOINTS: k-density: 8.0

Automatic generation of k-mesh.
Space group operators:
 irot       det(A)        alpha          n_x          n_y          n_z        tau_x        tau_y        tau_z
    1     1.000000     0.000000     1.000000     0.000000     0.000000     0.000000     0.000000     0.000000
    2    -1.000000     0.000000     1.000000     0.000000     0.000000    -0.622671     0.000000     0.000000
    3     1.000000   180.000000     0.000000     1.000000     0.000000    -0.622671     0.500000     0.000000
    4    -1.000000   180.000000     0.000000     1.000000     0.000000     0.000000     0.500000     0.000000

 Subroutine IBZKPT returns following result:

 Found     15 irreducible k-points:

 Following reciprocal coordinates:
            Coordinates               Weight
  0.000000  0.000000  0.000000      1.000000
  0.000000  0.125000  0.000000      2.000000
  0.000000  0.250000  0.000000      2.000000
  0.000000  0.375000  0.000000      2.000000
  0.000000  0.500000  0.000000      1.000000
  0.000000  0.000000  0.200000      2.000000
  0.000000  0.125000  0.200000      4.000000
  0.000000  0.250000  0.200000      4.000000
  0.000000  0.375000  0.200000      4.000000
  0.000000  0.500000  0.200000      2.000000
  0.000000  0.000000  0.400000      2.000000
  0.000000  0.125000  0.400000      4.000000
  0.000000  0.250000  0.400000      4.000000
  0.000000  0.375000  0.400000      4.000000
  0.000000  0.500000  0.400000      2.000000

 Following cartesian coordinates:
            Coordinates               Weight
  0.000000  0.000000  0.000000      1.000000
  0.000000  0.018442  0.000000      2.000000
  0.000000  0.036885  0.000000      2.000000
  0.000000  0.055327  0.000000      2.000000
  0.000000  0.073770  0.000000      1.000000
  0.000000  0.000000  0.017238      2.000000
  0.000000  0.018442  0.017238      4.000000
  0.000000  0.036885  0.017238      4.000000
  0.000000  0.055327  0.017238      4.000000
  0.000000  0.073770  0.017238      2.000000
  0.000000  0.000000  0.034476      2.000000
  0.000000  0.018442  0.034476      4.000000
  0.000000  0.036885  0.034476      4.000000
  0.000000  0.055327  0.034476      4.000000
  0.000000  0.073770  0.034476      2.000000

 TETIRR: Found    108 inequivalent tetrahedra from      240

 SYSTEM =  unknown system
 POSCAR =  ba8 si16

 Startparameter for this run:
   NWRITE =      2    write-flag & timer
   PREC   = normal    normal or accurate (medium, high low for compatibility)
   ISTART =      0    job   : 0-new  1-cont  2-samecut
   ICHARG =      2    charge: 1-file 2-atom 10-const
   ISPIN  =      1    spin polarized calculation?
   LNONCOLLINEAR =      F non collinear calculations
   LSORBIT =      F    spin-orbit coupling
   INIWAV =      1    electr: 0-lowe 1-rand  2-diag
   LASPH  =      F    aspherical Exc in radial PAW
   METAGGA=      F    non-selfconsistent MetaGGA calc.

 Electronic Relaxation 1
   ENCUT  =  500.0 eV  36.75 Ry    6.06 a.u.  43.77 12.36 21.15*2*pi/ulx,y,z
   ENINI  =  500.0     initial cutoff
   ENAUG  =  351.2 eV  augmentation charge cutoff
   NELM   =    100;   NELMIN=  2; NELMDL= -5     # of ELM steps
   EDIFF  = 0.1E-05   stopping-criterion for ELM
   LREAL  =      T    real-space projection
   NLSPLINE    = F    spline interpolate recip. space projectors
   LCOMPAT=      F    compatible to vasp.4.4
   GGA_COMPAT  = T    GGA compatible to vasp.4.4-vasp.4.6
   LMAXPAW     = -100 max onsite density
   LMAXMIX     =    2 max onsite mixed and CHGCAR
   VOSKOWN=      0    Vosko Wilk Nusair interpolation
   ROPT   =   -0.00050  -0.00050
 Ionic relaxation
   EDIFFG = -.1E-02   stopping-criterion for IOM
   NSW    =      0    number of steps for IOM
   NBLOCK =      1;   KBLOCK =      1    inner block; outer block
   IBRION =     -1    ionic relax: 0-MD 1-quasi-New 2-CG
   NFREE  =      0    steps in history (QN), initial steepest desc. (CG)
   ISIF   =      2    stress and relaxation
   IWAVPR =     10    prediction:  0-non 1-charg 2-wave 3-comb
   ISYM   =      2    0-nonsym 1-usesym 2-fastsym
   LCORR  =      T    Harris-Foulkes like correction to forces

   POTIM  = 0.3000    time-step for ionic-motion
   TEIN   =    0.0    initial temperature
   TEBEG  =    0.0;   TEEND  =   0.0 temperature during run
   SMASS  =  -3.00    Nose mass-parameter (am)
   estimated Nose-frequenzy (Omega)   =  0.10E-29 period in steps =****** mass=  -0.132E-25a.u.
   SCALEE = 1.0000    scale energy and forces
   NPACO  =    256;   APACO  = 16.0  distance and # of slots for P.C.
   PSTRESS=    0.0 pullay stress

  Mass of Ions in am
   POMASS = 137.33 28.09
  Ionic Valenz
   ZVAL   =  10.00  4.00
  Atomic Wigner-Seitz radii
[...]

 BZINTS: Fermi energy:  7.003925;144.000000 electrons
         Band energy:-493.031705;  BLOECHL correction: -0.024770

 eigenvalue-minimisations  :  2768
 total energy-change (2. order) : 0.1175141E+04  (-0.4803067E+04)
 number of electron     144.0000000 magnetization
 augmentation part      144.0000000 magnetization

 Free energy of the ion-electron system (eV)
  alpha Z        PSCENC =       166.34077906
  Ewald energy   TEWEN  =     12522.76186445
  -Hartree energ DENC   =    -18643.35851359
  -exchange      EXHF   =         0.00000000
  -V(xc)+E(xc)   XCENC  =        47.11458421
  PAW double counting   =      3711.26622449    -3423.01674647
  entropy T*S    EENTRO =         0.00000000
  eigenvalues    EBANDS =      -493.03170515
  atomic energy  EATOM  =      7287.06411261
  Solvation  Ediel_sol  =         0.00000000
  free energy    TOTEN  =      1175.14059960 eV

  energy without entropy =     1175.14059960  energy(sigma->0) =     1175.14059960

[...]

 eigenvalue-minimisations  :  3720
 total energy-change (2. order) :-0.1125145E+04  (-0.1093858E+04)
 number of electron     144.0000000 magnetization
 augmentation part      144.0000000 magnetization

[...]

 Broyden mixing:
  rms(total) = 0.94792E+00    rms(broyden)= 0.94791E+00
  rms(prec ) = 0.12350E+01
  weight for this iteration     100.00

[...]

 eigenvalues of (default mixing * dielectric matrix)
  average eigenvalue GAMMA=   1.5164
  1.5164

[...]

 eigenvalue-minimisations  :  3248
 total energy-change (2. order) : 0.1979696E-01  (-0.4959187E-02)
 number of electron     143.9999993 magnetization
 augmentation part      -17.0943657 magnetization

[...]

 Broyden mixing:
  rms(total) = 0.60683E-05    rms(broyden)= 0.60683E-05
  rms(prec ) = 0.92062E-05
  weight for this iteration     100.00

 eigenvalues of (default mixing * dielectric matrix)
  average eigenvalue GAMMA=   2.3596
  9.1194  7.0989  4.4641  3.6453  2.6880  2.6295  2.0113  2.0113  0.9139  0.9139
  1.4800  1.4800  1.2660  1.2660  1.1513  1.1513  0.9584  0.9584  1.0068  0.9775

[...]

--------------------------------------- Iteration      1(  26)  ---------------------------------------

 BZINTS: Fermi energy: -0.597366;144.000000 electrons
         Band energy:***********;  BLOECHL correction:  0.000000

 eigenvalue-minimisations  :  1896
 total energy-change (2. order) :-0.4281992E-06  (-0.6536979E-08)
 number of electron     143.9999993 magnetization
 augmentation part      -17.0921512 magnetization

 Free energy of the ion-electron system (eV)
  alpha Z        PSCENC =       166.34077906
  Ewald energy   TEWEN  =     12522.76186445
  -Hartree energ DENC   =    -18957.89962245
  -exchange      EXHF   =         0.00000000
  -V(xc)+E(xc)   XCENC  =        53.79716814
  PAW double counting   =      3849.79212861    -3578.34795680
  entropy T*S    EENTRO =         0.00000000
  eigenvalues    EBANDS =     -1458.42682220
  atomic energy  EATOM  =      7287.06411261
  Solvation  Ediel_sol  =         0.00000000
  free energy    TOTEN  =      -114.91834859 eV

  energy without entropy =     -114.91834859  energy(sigma->0) =     -114.91834859

 average (electrostatic) potential at core
  the test charge radii are     1.2192  0.9892
  (the norm of the test charge is              1.0000)
       1 -41.1840       2 -41.1840       3 -39.3332       4 -39.3332       5 -40.0790
       6 -40.0790       7 -40.0224       8 -40.0224       9 -90.5574      10 -90.5574
      11 -90.9744      12 -90.9744      13 -90.5574      14 -90.5574      15 -90.9744
      16 -90.9744      17 -91.0594      18 -91.0594      19 -90.5858      20 -90.5858
      21 -90.6756      22 -90.6756      23 -90.9909      24 -90.9909

 E-fermi :  -0.5974     XC(G=0):  -4.0581     alpha+bet : -3.8221

 k-point     1 :       0.0000    0.0000    0.0000
  band No.  band energies     occupation
      1     -29.7236      2.00000
      2     -29.7236      2.00000
      3     -28.6502      2.00000
      4     -28.6501      2.00000
      5     -28.5762      2.00000
      6     -28.5733      2.00000
      7     -27.9417      2.00000
      8     -27.9407      2.00000
      9     -14.9959      2.00000
     10     -14.9952      2.00000
     11     -14.9302      2.00000
     12     -14.9299      2.00000
     13     -14.8598      2.00000
     14     -14.8598      2.00000
     15     -14.0137      2.00000
     16     -14.0093      2.00000
     17     -13.9336      2.00000
     18     -13.9227      2.00000
     19     -13.8711      2.00000
     20     -13.8701      2.00000
     21     -13.8687      2.00000
     22     -13.8589      2.00000
     23     -13.8441      2.00000
     24     -13.8275      2.00000
     25     -13.8087      2.00000
     26     -13.7861      2.00000
     27     -13.3055      2.00000
     28     -13.2774      2.00000
     29     -13.2518      2.00000
     30     -13.2446      2.00000
     31     -13.2162      2.00000
     32     -13.2048      2.00000
     33     -11.3273      2.00000
     34     -11.2561      2.00000
     35     -10.9321      2.00000
     36     -10.9039      2.00000
     37      -6.5887      2.00000
     38      -6.5601      2.00000
     39      -6.3880      2.00000
     40      -6.3540      2.00000
     41      -6.3427      2.00000
     42      -6.3326      2.00000
     43      -6.1454      2.00000
     44      -6.1061      2.00000
     45      -5.9764      2.00000
     46      -5.8345      2.00000
     47      -5.8098      2.00000
     48      -5.8040      2.00000
     49      -3.7521      2.00000
     50      -3.2317      2.00000
     51      -2.7613      2.00000
     52      -2.7328      2.00000
     53      -2.6728      2.00000
     54      -2.3339      2.00000
     55      -2.1429      2.00000
     56      -2.0770      2.00000
     57      -2.0010      2.00000
     58      -1.9828      2.00000
     59      -1.9303      2.00000
     60      -1.8769      2.00000
[...]
     74       0.3137      0.00000
     75       0.3662      0.00000
     76       0.4995      0.00000
     77       0.5170      0.00000
     78       0.6671      0.00000
     79       0.8021      0.00000
     80       1.0049      0.00000
     81       1.0200      0.00000
     82       1.1104      0.00000
     83       1.2178      0.00000
     84       1.2215      0.00000
     85       1.2584      0.00000
     86       1.3197      0.00000
     87       1.4060      0.00000
     88       1.4883      0.00000

[...]

 k-point    15 :       0.0000    0.5000    0.4000
  band No.  band energies     occupation
      1     -29.7235      2.00000
      2     -29.7235      2.00000
      3     -28.6501      2.00000
      4     -28.6501      2.00000
      5     -28.5746      2.00000
      6     -28.5745      2.00000
      7     -27.9413      2.00000
      8     -27.9413      2.00000
      9     -14.9919      2.00000
     10     -14.9919      2.00000
     11     -14.9360      2.00000
     12     -14.9360      2.00000
     13     -14.8742      2.00000
     14     -14.8742      2.00000
     15     -14.0047      2.00000
     16     -14.0047      2.00000
     17     -13.9331      2.00000
     18     -13.9331      2.00000
     19     -13.8982      2.00000
     20     -13.8982      2.00000
     21     -13.8678      2.00000
     22     -13.8678      2.00000
     23     -13.8581      2.00000
     24     -13.8581      2.00000
     25     -13.7876      2.00000
     26     -13.7876      2.00000
     27     -13.2868      2.00000
     28     -13.2867      2.00000
     29     -13.2484      2.00000
     30     -13.2484      2.00000
     31     -13.2106      2.00000
     32     -13.2106      2.00000
     33     -11.2436      2.00000
     34     -11.2435      2.00000
     35     -10.8620      2.00000
     36     -10.8619      2.00000
     37      -6.6316      2.00000
     38      -6.6316      2.00000
     39      -6.3408      2.00000
     40      -6.3408      2.00000
     41      -6.3032      2.00000
     42      -6.3031      2.00000
     43      -6.0040      2.00000
     44      -6.0040      2.00000
     45      -5.9631      2.00000
     46      -5.9630      2.00000
     47      -5.8399      2.00000
     48      -5.8399      2.00000
     49      -2.9104      2.00000
     50      -2.9104      2.00000
     51      -2.7195      2.00000
     52      -2.7195      2.00000
     53      -2.3837      2.00000
     54      -2.3837      2.00000
     55      -2.3067      2.00000
     56      -2.3067      2.00000
     57      -2.1087      2.00000
     58      -2.1087      2.00000
     59      -1.8823      2.00000
     60      -1.8823      2.00000
[...]
     74       0.0761      0.00000
     75       0.3112      0.00000
     76       0.3112      0.00000
     77       0.4904      0.00000
     78       0.4904      0.00000
     79       0.6784      0.00000
     80       0.6784      0.00000
     81       0.7621      0.00000
     82       0.7621      0.00000
     83       1.0936      0.00000
     84       1.0936      0.00000
     85       1.3219      0.00000
     86       1.3220      0.00000
     87       1.4340      0.00000
     88       1.4340      0.00000

 soft charge-density along one line, spin component           1
         0         1         2         3         4         5         6         7         8         9
 total charge-density along one line

------------------------ aborting loop because EDIFF is reached ----------------------------------------

  FORCE on cell =-STRESS in cart. coord.  units (eV):
  Direction    XX          YY          ZZ          XY          YZ          ZX
  Alpha Z   166.34078   166.34078   166.34078
  Ewald  -20255.12210 16671.44840 16106.42194    -0.00002     0.00000   172.05552
  Hartree-17178.88736 18294.59231 17842.19085     0.00000    -0.00000   130.02127
  E(xc)    -457.69366  -458.03690  -457.95610    -0.00000    -0.00000     0.10903
  Local   36016.86103-36402.23140-35377.58587     0.00001    -0.00000  -299.95730
  n-local   344.87301   346.12984   346.35872     0.06586    -0.19972    -1.79535
  augment  -171.58649  -171.97696  -171.88642    -0.00000    -0.00000     0.35827
  Kinetic  1521.71788  1535.32101  1529.95277    -0.03324    -0.82664    -0.79575
  Fock        0.00000     0.00000     0.00000     0.00000     0.00000     0.00000
  Total     -13.49693   -18.41293   -16.16333     0.00000     0.00000    -0.00432
  in kB     -11.45336   -15.62503   -13.71604     0.00000     0.00000    -0.00367

 VOLUME and BASIS-vectors are now :
  energy-cutoff  :      500.00
  volume of cell :     1888.05
      direct lattice vectors                 reciprocal lattice vectors
    24.009468079  0.000000000  0.000000000     0.041650236  0.000000000  0.000000000
     0.000000000  6.777849674  0.000000000     0.000000000  0.147539419  0.000000000
     0.000000000  0.000000000 11.602143288     0.000000000  0.000000000  0.086190971

  length of vectors
    24.009468079  6.777849674 11.602143288     0.041650236  0.147539419  0.086190971

 FORCES acting on ions
    electron-ion (+dipol)            ewald-force                    non-local-force                 convergence-correction
   0.797E+03 0.101E-04 0.498E+02   -.792E+03 0.101E-04 -.489E+02   -.418E+01 0.167E-18 -.904E+00   0.126E-03 -.323E-09 -.189E-04
   -.797E+03 -.617E-04 -.498E+02   0.792E+03 -.130E-04 0.489E+02   0.418E+01 -.278E-19 0.904E+00   -.126E-03 0.367E-09 0.189E-04
   0.788E+02 -.579E-04 -.433E+02   -.785E+02 -.197E-04 0.421E+02   -.449E+00 0.420E-19 0.127E+01   0.558E-04 0.511E-09 -.426E-04
   -.788E+02 0.120E-04 0.433E+02   0.785E+02 0.136E-04 -.421E+02   0.449E+00 -.511E-19 -.127E+01   -.558E-04 -.450E-09 0.426E-04
   0.643E+03 -.596E-04 -.532E+02   -.640E+03 -.172E-04 0.536E+02   -.201E+01 -.578E-18 -.397E+00   0.190E-03 0.436E-09 -.303E-04
   -.643E+03 0.897E-05 0.532E+02   0.640E+03 0.149E-04 -.536E+02   0.201E+01 -.488E-18 0.397E+00   -.190E-03 -.389E-09 0.303E-04
   0.376E+03 0.125E-04 -.148E+02   -.374E+03 0.133E-04 0.139E+02   -.124E+01 -.897E-18 0.911E+00   0.891E-04 -.464E-09 -.538E-05
   -.376E+03 -.604E-04 0.148E+02   0.374E+03 -.131E-04 -.139E+02   0.124E+01 0.290E-18 -.911E+00   -.891E-04 0.508E-09 0.538E-05
   0.279E+03 0.385E+02 -.501E+02   -.279E+03 -.394E+02 0.506E+02   -.280E+00 0.926E+00 -.511E+00   0.915E-04 0.313E-04 -.293E-04
   -.279E+03 -.385E+02 0.501E+02   0.279E+03 0.394E+02 -.506E+02   0.280E+00 -.926E+00 0.511E+00   -.915E-04 -.313E-04 0.293E-04
   0.126E+03 -.346E+02 0.694E+01   -.126E+03 0.352E+02 -.610E+01   -.432E+00 -.582E+00 -.833E+00   0.325E-04 -.116E-04 0.501E-05
   -.126E+03 0.346E+02 -.694E+01   0.126E+03 -.352E+02 0.610E+01   0.432E+00 0.582E+00 0.833E+00   -.325E-04 0.116E-04 -.500E-05
   -.279E+03 0.385E+02 0.501E+02   0.279E+03 -.394E+02 -.506E+02   0.280E+00 0.926E+00 0.511E+00   -.915E-04 0.313E-04 0.293E-04
   0.279E+03 -.385E+02 -.501E+02   -.279E+03 0.394E+02 0.506E+02   -.280E+00 -.926E+00 -.511E+00   0.915E-04 -.313E-04 -.293E-04
   -.126E+03 -.346E+02 -.694E+01   0.126E+03 0.352E+02 0.610E+01   0.432E+00 -.582E+00 0.833E+00   -.325E-04 -.116E-04 -.500E-05
   0.126E+03 0.346E+02 0.694E+01   -.126E+03 -.352E+02 -.610E+01   -.432E+00 0.582E+00 -.833E+00   0.325E-04 0.116E-04 0.501E-05
   0.337E+03 -.521E-05 0.488E+02   -.338E+03 -.609E-05 -.492E+02   0.993E+00 -.326E-19 0.359E+00   0.672E-04 0.146E-09 0.102E-04
   -.337E+03 0.619E-05 -.488E+02   0.338E+03 0.636E-05 0.492E+02   -.993E+00 0.268E-19 -.359E+00   -.672E-04 -.131E-09 -.102E-04
   0.314E+02 0.105E-04 -.129E+02   -.305E+02 0.783E-05 0.120E+02   -.846E+00 0.176E-19 0.901E+00   -.319E-06 -.178E-09 -.209E-04
   -.314E+02 -.178E-05 0.129E+02   0.305E+02 -.744E-05 -.120E+02   0.846E+00 0.216E-20 -.901E+00   0.323E-06 0.167E-09 0.209E-04
   0.249E+03 0.444E-05 0.902E+01   -.248E+03 0.819E-05 -.981E+01   -.801E+00 0.596E-18 0.795E+00   0.946E-04 -.160E-09 0.217E-04
   -.249E+03 -.665E-05 -.902E+01   0.248E+03 -.824E-05 0.981E+01   0.801E+00 0.516E-18 -.795E+00   -.946E-04 0.155E-09 -.217E-04
   0.161E+03 -.744E-05 0.653E+02   -.161E+03 -.746E-05 -.663E+02   -.901E+00 0.143E-17 0.945E+00   0.296E-04 0.178E-09 0.244E-04
   -.161E+03 0.370E-05 -.653E+02   0.161E+03 0.730E-05 0.663E+02   0.901E+00 -.189E-17 -.945E+00   -.296E-04 -.171E-09 -.244E-04
   0.157E-03 -.202E-03 0.649E-04   0.000E+00 0.804E-14 -.426E-13   -.999E-15 0.668E-18 -.222E-15   0.375E-07 0.224E-09 -.286E-08

 POSITION                                       TOTAL-FORCE (eV/Angst)
      0.13670      1.69446      8.23825         0.992429     -0.000000     -0.000551
      8.92277      5.08339      3.36389        -0.992429      0.000000      0.000551
      4.36803      5.08339      2.14958        -0.179043      0.000000     -0.000060
      4.69143      1.69446      9.45256         0.179043      0.000000      0.000060
      1.43529      5.08339     10.66282         0.825988      0.000000     -0.000448
      7.62418      1.69446      0.93933        -0.825988      0.000000      0.000448
      3.06944      1.69446      4.59017         0.350013     -0.000000     -0.000861
      5.99002      5.08339      7.01198        -0.350013     -0.000000      0.000861
      1.75027      0.50111      1.66956         0.017086      0.000033     -0.000709
      7.30920      6.27674      9.93258        -0.017086     -0.000033      0.000709
      2.75446      6.28346      7.69467        -0.005400     -0.000858     -0.000023
      6.30500      0.49439      3.90747         0.005400      0.000858      0.000023
      7.30920      3.89003      9.93258        -0.017086      0.000033      0.000709
      1.75027      2.88782      1.66956         0.017086     -0.000033     -0.000709
      6.30500      2.89453      3.90747         0.005400     -0.000858      0.000023
      2.75446      3.88332      7.69467        -0.005400      0.000858     -0.000023
      0.74693      5.08339      7.03938         0.030639     -0.000000      0.000208
      8.31254      1.69446      4.56277        -0.030639     -0.000000     -0.000208
      3.75780      1.69446      0.98676         0.059273     -0.000000      0.000053
      5.30166      5.08339     10.61539        -0.059273     -0.000000     -0.000053
      1.78112      1.69446     11.17815        -0.159313     -0.000000     -0.000485
      7.27835      5.08339      0.42399         0.159313      0.000000      0.000485
      2.72362      5.08339      5.59741        -0.332930      0.000000      0.001033
      6.33585      1.69446      6.00473         0.332930      0.000000     -0.001033
    total drift:                                0.000157     -0.000202      0.000065

  FREE ENERGIE OF THE ION-ELECTRON SYSTEM (eV)
  free  energy   TOTEN  =      -114.91834859 eV

  energy  without entropy=     -114.91834859  energy(sigma->0) =     -114.91834859

 writing wavefunctions
 BZINTS: Fermi energy: -0.597366;144.000000 electrons
         Band energy:***********;  BLOECHL correction:  0.000000