 vasp.5.4.4.18Apr17-6-g9f103f2a35 (build Nov 21 2017 15:30:27) complex

 executed on             LinuxIFC date 2020.09.14  18:30:38

 INCAR:
 POTCAR:   PAW Ba_sv 17Apr2000
 POTCAR:   PAW Si 02Apr1999

 POTCAR:   PAW Ba_sv 17Apr2000
   VRHFIN =Ba: s2p6s2

   TITEL  = PAW Ba_sv 17Apr2000
   POMASS =  137.327; ZVAL   =   10.000    mass and valenz
   ENMAX  =  186.981; ENMIN  =  140.236 eV
   QCUT   =   -3.707; QGAM   =    7.414    optimization parameters

   Description
     l     E      TYP  RCUT    TYP  RCUT
     0   .000     23  2.800
     0   .000     23  2.800
     1   .000     23  2.700
     1  2.000     23  2.700
     2   .000     23  2.700
     2   .000     23  2.700

 POTCAR:   PAW Si 02Apr1999
   VRHFIN =Si: s2p2

   TITEL  = PAW Si 02Apr1999
   POMASS =   28.085; ZVAL   =    4.000    mass and valenz
   ENMAX  =  245.704; ENMIN  =  184.278 eV
   QCUT   =   -4.250; QGAM   =    8.499    optimization parameters

   Description
     l     E      TYP  RCUT    TYP  RCUT
     0   .000     23  1.900
     0   .000     23  1.900
     1   .000     23  1.900
     1   .000     23  1.900
     2   .000      7  1.900

 Optimization of the real space projectors (new method)

 maximal supplied QI-value         = 13.42
 optimisation between [QCUT,QGAM] = [ 11.40, 22.81] = [ 36.42,145.68] Ry
 Optimized for a Real-space Cutoff    1.56 Angstroem

   l    n(q)    QCUT    max X(q) W(low)/X(q) W(high)/X(q)  e(spline)
   0     11    11.404     7.180    0.12E-04    0.23E-04    0.91E-07
   0     11    11.404    14.700    0.33E-04    0.82E-04    0.45E-06
   1     10    11.404     3.780    0.19E-04    0.22E-04    0.42E-07
   1     10    11.404     4.341    0.22E-03    0.98E-04    0.21E-06
   2     10    11.404     5.806    0.81E-04    0.60E-05    0.26E-06
   2     10    11.404    65.524    0.41E-03    0.30E-04    0.12E-05
 Optimization of the real space projectors (new method)

 maximal supplied QI-value         = 19.84
 optimisation between [QCUT,QGAM] = [ 11.31, 22.82] = [ 35.82,145.81] Ry
 Optimized for a Real-space Cutoff    1.16 Angstroem

   l    n(q)    QCUT    max X(q) W(low)/X(q) W(high)/X(q)  e(spline)
   0      8    11.310     8.540    0.14E-04    0.11E-04    0.43E-08
   0      8    11.310   104.916    0.28E-03    0.31E-03    0.39E-07
   1      7    11.310     5.806    0.79E-05    0.47E-04    0.19E-07
   1      7    11.310    72.249    0.28E-03    0.28E-03    0.75E-07
 PAW Ba_sv 17Apr2000                    :
 PAW Si 02Apr1999                       :

 POSCAR: ba8 si16
  positions in direct lattice
  velocities in cartesian coordinates
 exchange correlation table for  LEXCH =        2
   RHO(1)=    0.500       N(1)  =     2000
   RHO(2)=  100.500       N(2)  =     4000

 ion  position               nearest neighbor table
   1  0.006  0.250  0.710-  21 3.36  16 3.45  11 3.45  17 3.64  17 3.64   5 4.36   5 4.36   7 4.68

   2  0.374  0.750  0.290-  22 3.36  12 3.45  15 3.45  18 3.64  18 3.64   6 4.36   6 4.36   8 4.68

   3  0.182  0.750  0.185-  20 3.27  22 3.42  12 3.44  15 3.44   9 3.45  14 3.45  19 3.64  19 3.64
                            23 3.83   5 4.26   7 4.37   7 4.37
   4  0.197  0.250  0.815-  19 3.27  21 3.42  16 3.44  11 3.44  13 3.45  10 3.45  20 3.64  20 3.64
                            24 3.83   6 4.26   8 4.37   8 4.37
   5  0.060  0.750  0.919-   9 3.42  14 3.42  21 3.45  21 3.45  11 3.45  16 3.45  17 3.68  20 3.92
                             3 4.26   1 4.36   1 4.36
   6  0.320  0.250  0.081-  13 3.42  10 3.42  22 3.45  22 3.45  15 3.45  12 3.45  18 3.68  19 3.92
                             4 4.26   2 4.36   2 4.36
   7  0.128  0.250  0.395-  14 3.42   9 3.42  23 3.55  23 3.55  15 3.56  12 3.56  24 3.61  19 3.67
                            16 3.82  11 3.82   3 4.37   3 4.37   1 4.68
   8  0.252  0.750  0.605-  10 3.42  13 3.42  24 3.55  24 3.55  11 3.56  16 3.56  23 3.61  20 3.67
                            12 3.82  15 3.82   4 4.37   4 4.37   2 4.68
   9  0.073  0.074  0.143-  14 2.39  21 2.41  19 2.43   7 3.42   5 3.42   3 3.45
  10  0.307  0.926  0.857-  13 2.39  22 2.41  20 2.43   8 3.42   6 3.42   4 3.45
  11  0.115  0.927  0.664-  16 2.40  23 2.42  17 2.43   4 3.44   5 3.45   1 3.45   8 3.56   7 3.82

[...]

  21  0.074  0.250  0.963-  14 2.41   9 2.41  19 2.43   1 3.36   4 3.42   5 3.45   5 3.45
  22  0.305  0.750  0.037-  10 2.41  13 2.41  20 2.43   2 3.36   3 3.42   6 3.45   6 3.45
  23  0.113  0.750  0.483-  11 2.42  16 2.42  17 2.45   7 3.55   7 3.55   8 3.61   3 3.83
  24  0.266  0.250  0.517-  15 2.42  12 2.42  18 2.45   8 3.55   8 3.55   7 3.61   4 3.83

  LATTYP: Found a simple orthorhombic cell.
 ALAT       =     6.7778496742
 B/A-ratio  =     1.7117734747
 C/A-ratio  =     3.5423429602

  Lattice vectors:

 A1 = (   0.0000000000,   6.7778496742,   0.0000000000)
 A2 = (   0.0000000000,   0.0000000000, -11.6021432877)
 A3 = ( -24.0094680786,   0.0000000000,   0.0000000000)

Analysis of symmetry for initial positions (statically):
 Subroutine PRICEL returns:
 Original cell was already a primitive cell.

 Routine SETGRP: Setting up the symmetry group for a
 simple orthorhombic supercell.

 Subroutine GETGRP returns: Found  4 space group operations
 (whereof  1 operations were pure point group operations)
 out of a pool of  8 trial point group operations.

The static configuration has the point symmetry C_1 .
 The point group associated with its full space group is C_2h.

Analysis of symmetry for dynamics (positions and initial velocities):
 Subroutine PRICEL returns:
 Original cell was already a primitive cell.

[...]

The dynamic configuration has the point symmetry C_1 .
 The point group associated with its full space group is C_2h.

Analysis of constrained symmetry for selective dynamics:
 Subroutine PRICEL returns:
 Original cell was already a primitive cell.

 Routine SETGRP: Setting up the symmetry group for a
 simple orthorhombic supercell.

 Subroutine GETGRP returns: Found  4 space group operations
 (whereof  1 operations were pure point group operations)
 out of a pool of  8 trial point group operations.

The constrained configuration has the point symmetry C_1 .
 The point group associated with its full space group is C_2h.

 Subroutine INISYM returns: Found  4 space group operations
 (whereof  1 operations are pure point group operations),
 and found     1 'primitive' translations

 KPOINTS: k-density: 8.0

Automatic generation of k-mesh.
Space group operators:
 irot       det(A)        alpha          n_x          n_y          n_z        tau_x        tau_y        tau_z
    1     1.000000     0.000000     1.000000     0.000000     0.000000     0.000000     0.000000     0.000000
    2    -1.000000     0.000000     1.000000     0.000000     0.000000    -0.620589     0.000000     0.000000
    3     1.000000   180.000000     0.000000     1.000000     0.000000    -0.620589     0.500000     0.000000
    4    -1.000000   180.000000     0.000000     1.000000     0.000000     0.000000     0.500000     0.000000

 Subroutine IBZKPT returns following result:

 Found     15 irreducible k-points:

 Following reciprocal coordinates:
            Coordinates               Weight
  0.000000  0.000000  0.000000      1.000000
  0.000000  0.125000  0.000000      2.000000
  0.000000  0.250000  0.000000      2.000000
  0.000000  0.375000  0.000000      2.000000
  0.000000  0.500000  0.000000      1.000000
  0.000000  0.000000  0.200000      2.000000
  0.000000  0.125000  0.200000      4.000000
  0.000000  0.250000  0.200000      4.000000
  0.000000  0.375000  0.200000      4.000000
  0.000000  0.500000  0.200000      2.000000
  0.000000  0.000000  0.400000      2.000000
  0.000000  0.125000  0.400000      4.000000
  0.000000  0.250000  0.400000      4.000000
  0.000000  0.375000  0.400000      4.000000
  0.000000  0.500000  0.400000      2.000000

 Following cartesian coordinates:
            Coordinates               Weight
  0.000000  0.000000  0.000000      1.000000
  0.000000  0.018442  0.000000      2.000000
  0.000000  0.036885  0.000000      2.000000
  0.000000  0.055327  0.000000      2.000000
  0.000000  0.073770  0.000000      1.000000
  0.000000  0.000000  0.017238      2.000000
  0.000000  0.018442  0.017238      4.000000
  0.000000  0.036885  0.017238      4.000000
  0.000000  0.055327  0.017238      4.000000
  0.000000  0.073770  0.017238      2.000000
  0.000000  0.000000  0.034476      2.000000
  0.000000  0.018442  0.034476      4.000000
  0.000000  0.036885  0.034476      4.000000
  0.000000  0.055327  0.034476      4.000000
  0.000000  0.073770  0.034476      2.000000

 TETIRR: Found    108 inequivalent tetrahedra from      240

 SYSTEM =  unknown system
 POSCAR =  ba8 si16

 Startparameter for this run:
   NWRITE =      2    write-flag & timer
   PREC   = normal    normal or accurate (medium, high low for compatibility)
   ISTART =      0    job   : 0-new  1-cont  2-samecut
   ICHARG =      2    charge: 1-file 2-atom 10-const
   ISPIN  =      1    spin polarized calculation?
   LNONCOLLINEAR =      F non collinear calculations
   LSORBIT =      F    spin-orbit coupling
   INIWAV =      1    electr: 0-lowe 1-rand  2-diag
   LASPH  =      F    aspherical Exc in radial PAW
   METAGGA=      F    non-selfconsistent MetaGGA calc.

 Electronic Relaxation 1
   ENCUT  =  500.0 eV  36.75 Ry    6.06 a.u.  43.77 12.36 21.15*2*pi/ulx,y,z
   ENINI  =  500.0     initial cutoff
   ENAUG  =  351.2 eV  augmentation charge cutoff
   NELM   =    100;   NELMIN=  2; NELMDL= -5     # of ELM steps
   EDIFF  = 0.1E-05   stopping-criterion for ELM
   LREAL  =      T    real-space projection
   NLSPLINE    = F    spline interpolate recip. space projectors
   LCOMPAT=      F    compatible to vasp.4.4
   GGA_COMPAT  = T    GGA compatible to vasp.4.4-vasp.4.6
   LMAXPAW     = -100 max onsite density
   LMAXMIX     =    2 max onsite mixed and CHGCAR
   VOSKOWN=      0    Vosko Wilk Nusair interpolation
   ROPT   =   -0.00050  -0.00050
 Ionic relaxation
   EDIFFG = -.1E-02   stopping-criterion for IOM
   NSW    =      0    number of steps for IOM
   NBLOCK =      1;   KBLOCK =      1    inner block; outer block
   IBRION =     -1    ionic relax: 0-MD 1-quasi-New 2-CG
   NFREE  =      0    steps in history (QN), initial steepest desc. (CG)
   ISIF   =      2    stress and relaxation
   IWAVPR =     10    prediction:  0-non 1-charg 2-wave 3-comb
   ISYM   =      2    0-nonsym 1-usesym 2-fastsym
   LCORR  =      T    Harris-Foulkes like correction to forces

   POTIM  = 0.3000    time-step for ionic-motion
   TEIN   =    0.0    initial temperature
   TEBEG  =    0.0;   TEEND  =   0.0 temperature during run
   SMASS  =  -3.00    Nose mass-parameter (am)
   estimated Nose-frequenzy (Omega)   =  0.10E-29 period in steps =****** mass=  -0.132E-25a.u.
   SCALEE = 1.0000    scale energy and forces
   NPACO  =    256;   APACO  = 16.0  distance and # of slots for P.C.
   PSTRESS=    0.0 pullay stress

  Mass of Ions in am
   POMASS = 137.33 28.09
  Ionic Valenz
   ZVAL   =  10.00  4.00
  Atomic Wigner-Seitz radii
  virtual crystal weights
   VCA    =   1.00  1.00
   NELECT =     144.0000    total number of electrons
   NUPDOWN=      -1.0000    fix difference up-down

 DOS related values:
[...]

 BZINTS: Fermi energy:  6.994016;144.000000 electrons
         Band energy:-492.845670;  BLOECHL correction: -0.025337

 eigenvalue-minimisations  :  2768
 total energy-change (2. order) : 0.1173161E+04  (-0.4801712E+04)
 number of electron     144.0000000 magnetization
 augmentation part      144.0000000 magnetization

 Free energy of the ion-electron system (eV)
  alpha Z        PSCENC =       166.34077906
  Ewald energy   TEWEN  =     12352.86195074
  -Hartree energ DENC   =    -18475.43558204
  -exchange      EXHF   =         0.00000000
  -V(xc)+E(xc)   XCENC  =        46.92569640
  PAW double counting   =      3711.26622449    -3423.01674647
  entropy T*S    EENTRO =         0.00000000
  eigenvalues    EBANDS =      -492.84566974
  atomic energy  EATOM  =      7287.06411261
  Solvation  Ediel_sol  =         0.00000000
  free energy    TOTEN  =      1173.16076505 eV

  energy without entropy =     1173.16076505  energy(sigma->0) =     1173.16076505

[...]

 eigenvalue-minimisations  :  3736
 total energy-change (2. order) :-0.1123661E+04  (-0.1092252E+04)
 number of electron     144.0000000 magnetization
 augmentation part      144.0000000 magnetization

[...]

 Broyden mixing:
  rms(total) = 0.94889E+00    rms(broyden)= 0.94888E+00
  rms(prec ) = 0.12333E+01
  weight for this iteration     100.00

[...]

 eigenvalues of (default mixing * dielectric matrix)
  average eigenvalue GAMMA=   1.5175
  1.5175

[...]

 eigenvalue-minimisations  :  3256
 total energy-change (2. order) : 0.1972287E-01  (-0.4998860E-02)
 number of electron     144.0000010 magnetization
 augmentation part      -17.0887732 magnetization

[...]

 Broyden mixing:
  rms(total) = 0.63137E-05    rms(broyden)= 0.63136E-05
  rms(prec ) = 0.94434E-05
  weight for this iteration     100.00

 eigenvalues of (default mixing * dielectric matrix)
  average eigenvalue GAMMA=   2.3610
  9.1203  7.0851  4.4811  3.6188  2.7653  2.5549  2.0335  2.0335  0.9119  0.9119
  1.4679  1.4679  1.2584  1.2584  1.1753  1.1753  0.9606  0.9606  1.0240  0.9549

[...]

--------------------------------------- Iteration      1(  26)  ---------------------------------------

 BZINTS: Fermi energy: -0.603808;144.000000 electrons
         Band energy:***********;  BLOECHL correction:  0.000000

 eigenvalue-minimisations  :  1896
 total energy-change (2. order) :-0.4129597E-06  (-0.6705261E-08)
 number of electron     144.0000010 magnetization
 augmentation part      -17.0863886 magnetization

 Free energy of the ion-electron system (eV)
  alpha Z        PSCENC =       166.34077906
  Ewald energy   TEWEN  =     12352.86195074
  -Hartree energ DENC   =    -18787.21815091
  -exchange      EXHF   =         0.00000000
  -V(xc)+E(xc)   XCENC  =        53.62897596
  PAW double counting   =      3847.40835189    -3575.94410292
  entropy T*S    EENTRO =         0.00000000
  eigenvalues    EBANDS =     -1458.97136072
  atomic energy  EATOM  =      7287.06411261
  Solvation  Ediel_sol  =         0.00000000
  free energy    TOTEN  =      -114.82944429 eV

  energy without entropy =     -114.82944429  energy(sigma->0) =     -114.82944429

 average (electrostatic) potential at core
  the test charge radii are     1.2192  0.9892
  (the norm of the test charge is              1.0000)
       1 -41.1745       2 -41.1745       3 -39.3775       4 -39.3775       5 -40.0816
       6 -40.0816       7 -40.0695       8 -40.0695       9 -90.5588      10 -90.5588
      11 -90.9703      12 -90.9703      13 -90.5588      14 -90.5588      15 -90.9703
      16 -90.9703      17 -91.0530      18 -91.0530      19 -90.5840      20 -90.5840
      21 -90.6829      22 -90.6829      23 -90.9855      24 -90.9855

 E-fermi :  -0.6038     XC(G=0):  -4.0673     alpha+bet : -3.8221

 k-point     1 :       0.0000    0.0000    0.0000
  band No.  band energies     occupation
      1     -29.7144      2.00000
      2     -29.7144      2.00000
      3     -28.6531      2.00000
      4     -28.6530      2.00000
      5     -28.6181      2.00000
      6     -28.6155      2.00000
      7     -27.9798      2.00000
      8     -27.9788      2.00000
      9     -14.9875      2.00000
     10     -14.9869      2.00000
     11     -14.9218      2.00000
     12     -14.9215      2.00000
     13     -14.8508      2.00000
     14     -14.8507      2.00000
     15     -14.0185      2.00000
     16     -14.0144      2.00000
     17     -13.9535      2.00000
     18     -13.9351      2.00000
     19     -13.8962      2.00000
     20     -13.8876      2.00000
     21     -13.8819      2.00000
     22     -13.8613      2.00000
     23     -13.8603      2.00000
     24     -13.8535      2.00000
     25     -13.8457      2.00000
     26     -13.8190      2.00000
     27     -13.3347      2.00000
     28     -13.3048      2.00000
     29     -13.2804      2.00000
     30     -13.2711      2.00000
     31     -13.2470      2.00000
     32     -13.2355      2.00000
     33     -11.3174      2.00000
     34     -11.2506      2.00000
     35     -10.9324      2.00000
     36     -10.9050      2.00000
     37      -6.5776      2.00000
     38      -6.5473      2.00000
     39      -6.3812      2.00000
     40      -6.3394      2.00000
     41      -6.3274      2.00000
     42      -6.3168      2.00000
     43      -6.1487      2.00000
     44      -6.1007      2.00000
     45      -5.9801      2.00000
     46      -5.8358      2.00000
     47      -5.8126      2.00000
     48      -5.8059      2.00000
     49      -3.7413      2.00000
     50      -3.2334      2.00000
     51      -2.7600      2.00000
     52      -2.7284      2.00000
     53      -2.6593      2.00000
     54      -2.3355      2.00000
     55      -2.1370      2.00000
     56      -2.0656      2.00000
     57      -1.9912      2.00000
     58      -1.9722      2.00000
     59      -1.9247      2.00000
     60      -1.8636      2.00000
[...]
     74       0.3141      0.00000
     75       0.3775      0.00000
     76       0.5055      0.00000
     77       0.5216      0.00000
     78       0.6765      0.00000
     79       0.7992      0.00000
     80       1.0066      0.00000
     81       1.0408      0.00000
     82       1.1088      0.00000
     83       1.2159      0.00000
     84       1.2217      0.00000
     85       1.2567      0.00000
     86       1.3157      0.00000
     87       1.4050      0.00000
     88       1.4875      0.00000

[...]

 k-point    15 :       0.0000    0.5000    0.4000
  band No.  band energies     occupation
      1     -29.7143      2.00000
      2     -29.7143      2.00000
      3     -28.6531      2.00000
      4     -28.6531      2.00000
      5     -28.6166      2.00000
      6     -28.6166      2.00000
      7     -27.9794      2.00000
      8     -27.9794      2.00000
      9     -14.9835      2.00000
     10     -14.9835      2.00000
     11     -14.9277      2.00000
     12     -14.9277      2.00000
     13     -14.8652      2.00000
     14     -14.8652      2.00000
     15     -14.0096      2.00000
     16     -14.0096      2.00000
     17     -13.9526      2.00000
     18     -13.9526      2.00000
     19     -13.9079      2.00000
     20     -13.9079      2.00000
     21     -13.8853      2.00000
     22     -13.8853      2.00000
     23     -13.8777      2.00000
     24     -13.8777      2.00000
     25     -13.8214      2.00000
     26     -13.8214      2.00000
     27     -13.3161      2.00000
     28     -13.3161      2.00000
     29     -13.2755      2.00000
     30     -13.2754      2.00000
     31     -13.2412      2.00000
     32     -13.2412      2.00000
     33     -11.2362      2.00000
     34     -11.2362      2.00000
     35     -10.8626      2.00000
     36     -10.8625      2.00000
     37      -6.6192      2.00000
     38      -6.6192      2.00000
     39      -6.3324      2.00000
     40      -6.3324      2.00000
     41      -6.2938      2.00000
     42      -6.2938      2.00000
     43      -6.0008      2.00000
     44      -6.0007      2.00000
     45      -5.9618      2.00000
     46      -5.9618      2.00000
     47      -5.8438      2.00000
     48      -5.8437      2.00000
     49      -2.8981      2.00000
     50      -2.8981      2.00000
     51      -2.7149      2.00000
     52      -2.7149      2.00000
     53      -2.3703      2.00000
     54      -2.3703      2.00000
     55      -2.2932      2.00000
     56      -2.2932      2.00000
     57      -2.1087      2.00000
     58      -2.1087      2.00000
     59      -1.8743      2.00000
     60      -1.8743      2.00000
[...]
     74       0.0879      0.00000
     75       0.3194      0.00000
     76       0.3194      0.00000
     77       0.4960      0.00000
     78       0.4960      0.00000
     79       0.6783      0.00000
     80       0.6783      0.00000
     81       0.7598      0.00000
     82       0.7598      0.00000
     83       1.0935      0.00000
     84       1.0935      0.00000
     85       1.3206      0.00000
     86       1.3206      0.00000
     87       1.4300      0.00000
     88       1.4300      0.00000

 soft charge-density along one line, spin component           1
         0         1         2         3         4         5         6         7         8         9
 total charge-density along one line

------------------------ aborting loop because EDIFF is reached ----------------------------------------

  FORCE on cell =-STRESS in cart. coord.  units (eV):
  Direction    XX          YY          ZZ          XY          YZ          ZX
  Alpha Z   166.34078   166.34078   166.34078
  Ewald  -20078.03077 16498.83878 15932.04034    -0.00002     0.00000   174.07127
  Hartree-17005.32579 18123.38501 17669.15436     0.00000    -0.00000   131.92556
  E(xc)    -457.48664  -457.84729  -457.77735    -0.00000    -0.00000     0.10096
  Local   35666.62585-36058.37649-35030.22048     0.00001    -0.00000  -304.04047
  n-local   344.78593   345.95293   346.38222     0.06591    -0.20273    -1.68788
  augment  -171.53707  -171.95136  -171.88581    -0.00000    -0.00000     0.33972
  Kinetic  1520.16546  1534.79215  1529.43003    -0.04069    -0.82758    -0.66142
  Fock        0.00000     0.00000     0.00000     0.00000     0.00000     0.00000
  Total     -14.46225   -18.86548   -16.53591     0.00000     0.00000     0.04775
  in kB     -12.27252   -16.00906   -14.03221     0.00000     0.00000     0.04052

 VOLUME and BASIS-vectors are now :
  energy-cutoff  :      500.00
  volume of cell :     1888.05
      direct lattice vectors                 reciprocal lattice vectors
    24.009468079  0.000000000  0.000000000     0.041650236  0.000000000  0.000000000
     0.000000000  6.777849674  0.000000000     0.000000000  0.147539419  0.000000000
     0.000000000  0.000000000 11.602143288     0.000000000  0.000000000  0.086190971

  length of vectors
    24.009468079  6.777849674 11.602143288     0.041650236  0.147539419  0.086190971

 FORCES acting on ions
    electron-ion (+dipol)            ewald-force                    non-local-force                 convergence-correction
   0.793E+03 0.101E-04 0.501E+02   -.788E+03 0.101E-04 -.492E+02   -.419E+01 -.142E-18 -.905E+00   0.143E-03 -.284E-09 -.177E-04
   -.793E+03 -.617E-04 -.501E+02   0.788E+03 -.130E-04 0.492E+02   0.419E+01 0.142E-18 0.905E+00   -.143E-03 0.311E-09 0.177E-04
   0.809E+02 -.582E-04 -.444E+02   -.806E+02 -.194E-04 0.431E+02   -.393E+00 -.659E-19 0.128E+01   0.569E-04 0.438E-09 -.496E-04
   -.809E+02 0.118E-04 0.444E+02   0.806E+02 0.135E-04 -.431E+02   0.393E+00 0.997E-20 -.128E+01   -.569E-04 -.394E-09 0.496E-04
   0.640E+03 -.596E-04 -.530E+02   -.637E+03 -.171E-04 0.534E+02   -.197E+01 0.250E-17 -.360E+00   0.220E-03 0.372E-09 -.228E-04
   -.640E+03 0.897E-05 0.530E+02   0.637E+03 0.149E-04 -.534E+02   0.197E+01 0.227E-17 0.360E+00   -.220E-03 -.340E-09 0.228E-04
   0.373E+03 0.123E-04 -.157E+02   -.371E+03 0.132E-04 0.148E+02   -.113E+01 -.141E-17 0.907E+00   0.112E-03 -.408E-09 -.129E-04
   -.373E+03 -.605E-04 0.157E+02   0.371E+03 -.130E-04 -.148E+02   0.113E+01 -.242E-18 -.907E+00   -.112E-03 0.443E-09 0.129E-04
   0.278E+03 0.383E+02 -.502E+02   -.278E+03 -.393E+02 0.507E+02   -.263E+00 0.937E+00 -.506E+00   0.104E-03 0.375E-04 -.337E-04
   -.278E+03 -.383E+02 0.502E+02   0.278E+03 0.393E+02 -.507E+02   0.263E+00 -.937E+00 0.506E+00   -.104E-03 -.375E-04 0.337E-04
   0.125E+03 -.348E+02 0.710E+01   -.124E+03 0.354E+02 -.624E+01   -.313E+00 -.571E+00 -.856E+00   0.442E-04 -.138E-04 0.473E-05
   -.125E+03 0.348E+02 -.710E+01   0.124E+03 -.354E+02 0.624E+01   0.313E+00 0.571E+00 0.856E+00   -.442E-04 0.138E-04 -.473E-05
   -.278E+03 0.383E+02 0.502E+02   0.278E+03 -.393E+02 -.507E+02   0.263E+00 0.937E+00 0.506E+00   -.104E-03 0.375E-04 0.337E-04
   0.278E+03 -.383E+02 -.502E+02   -.278E+03 0.393E+02 0.507E+02   -.263E+00 -.937E+00 -.506E+00   0.104E-03 -.375E-04 -.337E-04
   -.125E+03 -.348E+02 -.710E+01   0.124E+03 0.354E+02 0.624E+01   0.313E+00 -.571E+00 0.856E+00   -.442E-04 -.138E-04 -.473E-05
   0.125E+03 0.348E+02 0.710E+01   -.124E+03 -.354E+02 -.624E+01   -.313E+00 0.571E+00 -.856E+00   0.442E-04 0.138E-04 0.473E-05
   0.335E+03 -.521E-05 0.490E+02   -.336E+03 -.608E-05 -.494E+02   0.101E+01 0.469E-19 0.362E+00   0.782E-04 0.130E-09 0.950E-05
   -.335E+03 0.619E-05 -.490E+02   0.336E+03 0.635E-05 0.494E+02   -.101E+01 -.476E-19 -.362E+00   -.782E-04 -.113E-09 -.950E-05
   0.317E+02 0.102E-04 -.130E+02   -.307E+02 0.778E-05 0.121E+02   -.862E+00 0.757E-19 0.902E+00   -.346E-05 -.153E-09 -.211E-04
   -.317E+02 -.204E-05 0.130E+02   0.307E+02 -.740E-05 -.121E+02   0.862E+00 0.808E-19 -.902E+00   0.346E-05 0.145E-09 0.211E-04
   0.247E+03 0.442E-05 0.970E+01   -.246E+03 0.817E-05 -.105E+02   -.677E+00 0.552E-18 0.779E+00   0.108E-03 -.137E-09 0.316E-04
   -.247E+03 -.662E-05 -.970E+01   0.246E+03 -.823E-05 0.105E+02   0.677E+00 0.436E-18 -.779E+00   -.108E-03 0.135E-09 -.316E-04
   0.160E+03 -.742E-05 0.649E+02   -.159E+03 -.740E-05 -.659E+02   -.836E+00 -.960E-18 0.970E+00   0.405E-04 0.157E-09 0.246E-04
   -.160E+03 0.369E-05 -.649E+02   0.159E+03 0.725E-05 0.659E+02   0.836E+00 0.331E-17 -.970E+00   -.405E-04 -.149E-09 -.246E-04
   0.183E-03 -.204E-03 0.718E-04   0.426E-12 0.156E-13 0.426E-13   0.000E+00 -.108E-15 0.111E-15   -.152E-07 0.180E-09 -.377E-08

 POSITION                                       TOTAL-FORCE (eV/Angst)
      0.13670      1.69446      8.23724         0.997754     -0.000000     -0.000144
      8.97277      5.08339      3.36490        -0.997754     -0.000000      0.000144
      4.36803      5.08339      2.14651        -0.086857      0.000000     -0.000047
      4.74143      1.69446      9.45563         0.086857     -0.000000      0.000047
      1.43529      5.08339     10.65740         0.822573     -0.000000      0.000072
      7.67418      1.69446      0.94474        -0.822573      0.000000     -0.000072
      3.06944      1.69446      4.58507         0.403604     -0.000000     -0.000682
      6.04002      5.08339      7.01707        -0.403604     -0.000000      0.000682
      1.75027      0.50061      1.66314         0.029501     -0.000534      0.000313
      7.35920      6.27724      9.93901        -0.029501      0.000534     -0.000313
      2.75446      6.28372      7.69995         0.043961     -0.000373     -0.000128
      6.35500      0.49413      3.90219        -0.043961      0.000373      0.000128
      7.35920      3.88954      9.93901        -0.029501     -0.000534     -0.000313
      1.75027      2.88831      1.66314         0.029501      0.000534      0.000313
      6.35500      2.89480      3.90219        -0.043961     -0.000373      0.000128
      2.75446      3.88305      7.69995         0.043961      0.000373     -0.000128
      0.74693      5.08339      7.04299         0.031554     -0.000000      0.000289
      8.36254      1.69446      4.55915        -0.031554     -0.000000     -0.000289
      3.75780      1.69446      0.97668         0.072141      0.000000     -0.000582
      5.35166      5.08339     10.62546        -0.072141     -0.000000      0.000582
      1.78112      1.69446     11.17104        -0.140270     -0.000000     -0.000570
      7.32835      5.08339      0.43110         0.140270     -0.000000      0.000570
      2.72362      5.08339      5.60170        -0.311071      0.000000     -0.001122
      6.38585      1.69446      6.00044         0.311071      0.000000      0.001122
    total drift:                                0.000183     -0.000204      0.000072

  FREE ENERGIE OF THE ION-ELECTRON SYSTEM (eV)
  free  energy   TOTEN  =      -114.82944429 eV

  energy  without entropy=     -114.82944429  energy(sigma->0) =     -114.82944429

 writing wavefunctions
 BZINTS: Fermi energy: -0.603808;144.000000 electrons
         Band energy:***********;  BLOECHL correction:  0.000000