 vasp.5.4.4.18Apr17-6-g9f103f2a35 (build Nov 21 2017 15:30:27) complex

 executed on             LinuxIFC date 2020.09.15  07:59:28

 INCAR:
 POTCAR:   PAW Ba_sv 17Apr2000
 POTCAR:   PAW Si 02Apr1999

 POTCAR:   PAW Ba_sv 17Apr2000
   VRHFIN =Ba: s2p6s2

   TITEL  = PAW Ba_sv 17Apr2000
   POMASS =  137.327; ZVAL   =   10.000    mass and valenz
   ENMAX  =  186.981; ENMIN  =  140.236 eV
   QCUT   =   -3.707; QGAM   =    7.414    optimization parameters

   Description
     l     E      TYP  RCUT    TYP  RCUT
     0   .000     23  2.800
     0   .000     23  2.800
     1   .000     23  2.700
     1  2.000     23  2.700
     2   .000     23  2.700
     2   .000     23  2.700

 POTCAR:   PAW Si 02Apr1999
   VRHFIN =Si: s2p2

   TITEL  = PAW Si 02Apr1999
   POMASS =   28.085; ZVAL   =    4.000    mass and valenz
   ENMAX  =  245.704; ENMIN  =  184.278 eV
   QCUT   =   -4.250; QGAM   =    8.499    optimization parameters

   Description
     l     E      TYP  RCUT    TYP  RCUT
     0   .000     23  1.900
     0   .000     23  1.900
     1   .000     23  1.900
     1   .000     23  1.900
     2   .000      7  1.900

 Optimization of the real space projectors (new method)

 maximal supplied QI-value         = 13.42
 optimisation between [QCUT,QGAM] = [ 11.40, 22.81] = [ 36.42,145.68] Ry
 Optimized for a Real-space Cutoff    1.56 Angstroem

   l    n(q)    QCUT    max X(q) W(low)/X(q) W(high)/X(q)  e(spline)
   0     11    11.404     7.180    0.12E-04    0.23E-04    0.91E-07
   0     11    11.404    14.700    0.33E-04    0.82E-04    0.45E-06
   1     10    11.404     3.780    0.19E-04    0.22E-04    0.42E-07
   1     10    11.404     4.341    0.22E-03    0.98E-04    0.21E-06
   2     10    11.404     5.806    0.81E-04    0.60E-05    0.26E-06
   2     10    11.404    65.524    0.41E-03    0.30E-04    0.12E-05
 Optimization of the real space projectors (new method)

 maximal supplied QI-value         = 19.84
 optimisation between [QCUT,QGAM] = [ 11.31, 22.82] = [ 35.82,145.81] Ry
 Optimized for a Real-space Cutoff    1.16 Angstroem

   l    n(q)    QCUT    max X(q) W(low)/X(q) W(high)/X(q)  e(spline)
   0      8    11.310     8.540    0.14E-04    0.11E-04    0.43E-08
   0      8    11.310   104.916    0.28E-03    0.31E-03    0.39E-07
   1      7    11.310     5.806    0.79E-05    0.47E-04    0.19E-07
   1      7    11.310    72.249    0.28E-03    0.28E-03    0.75E-07
 PAW Ba_sv 17Apr2000                    :
 PAW Si 02Apr1999                       :

 POSCAR: ba8 si16
  positions in direct lattice
  velocities in cartesian coordinates
 exchange correlation table for  LEXCH =        2
   RHO(1)=    0.500       N(1)  =     2000
   RHO(2)=  100.500       N(2)  =     4000

 ion  position               nearest neighbor table
   1  0.006  0.250  0.704-  21 3.36  16 3.44  11 3.44  17 3.63  17 3.63   5 4.36   5 4.36   7 4.68

   2  0.390  0.750  0.296-  22 3.36  12 3.44  15 3.44  18 3.63  18 3.63   6 4.36   6 4.36   8 4.68

   3  0.182  0.750  0.182-  20 3.31   9 3.46  14 3.46  19 3.66  19 3.66  12 3.70  15 3.70  22 3.73
                            23 3.84   5 4.29   7 4.36   7 4.36
   4  0.214  0.250  0.818-  19 3.31  13 3.46  10 3.46  20 3.66  20 3.66  16 3.70  11 3.70  21 3.73
                            24 3.84   6 4.29   8 4.36   8 4.36
   5  0.060  0.750  0.913-  11 3.41  16 3.41   9 3.42  14 3.42  21 3.44  21 3.44  17 3.63   3 4.29
                             1 4.36   1 4.36
   6  0.336  0.250  0.087-  15 3.41  12 3.41  13 3.42  10 3.42  22 3.44  22 3.44  18 3.63   4 4.29
                             2 4.36   2 4.36
   7  0.128  0.250  0.391-  14 3.43   9 3.43  23 3.57  23 3.57  19 3.71  16 3.85  11 3.85  15 3.93
                            12 3.93   3 4.36   3 4.36   1 4.68
   8  0.268  0.750  0.609-  10 3.43  13 3.43  24 3.57  24 3.57  20 3.71  12 3.85  15 3.85  11 3.93
                            16 3.93   4 4.36   4 4.36   2 4.68
   9  0.073  0.074  0.138-  14 2.39  21 2.41  19 2.44   5 3.42   7 3.43   3 3.46
  10  0.323  0.926  0.862-  13 2.39  22 2.41  20 2.44   6 3.42   8 3.43   4 3.46
  11  0.115  0.928  0.663-  16 2.42  23 2.42  17 2.43   5 3.41   1 3.44   4 3.70   7 3.85   8 3.93

[...]

  17  0.031  0.750  0.606-  11 2.43  16 2.43  23 2.45   1 3.63   1 3.63   5 3.63
  18  0.365  0.250  0.394-  15 2.43  12 2.43  24 2.45   2 3.63   2 3.63   6 3.63
  19  0.157  0.250  0.076-  21 2.42  14 2.44   9 2.44   4 3.31   3 3.66   3 3.66   7 3.71
  20  0.240  0.750  0.924-  22 2.42  10 2.44  13 2.44   3 3.31   4 3.66   4 3.66   8 3.71
  21  0.074  0.250  0.957-  14 2.41   9 2.41  19 2.42   1 3.36   5 3.44   5 3.44   4 3.73
  22  0.322  0.750  0.043-  10 2.41  13 2.41  20 2.42   2 3.36   6 3.44   6 3.44   3 3.73
  23  0.113  0.750  0.482-  11 2.42  16 2.42  17 2.45   7 3.57   7 3.57   3 3.84
  24  0.283  0.250  0.518-  15 2.42  12 2.42  18 2.45   8 3.57   8 3.57   4 3.84

  LATTYP: Found a simple orthorhombic cell.
 ALAT       =     6.7778496742
 B/A-ratio  =     1.7117734747
 C/A-ratio  =     3.5423429602

  Lattice vectors:

 A1 = (   0.0000000000,   6.7778496742,   0.0000000000)
 A2 = (   0.0000000000,   0.0000000000, -11.6021432877)
 A3 = ( -24.0094680786,   0.0000000000,   0.0000000000)

Analysis of symmetry for initial positions (statically):
 Subroutine PRICEL returns:
 Original cell was already a primitive cell.

 Routine SETGRP: Setting up the symmetry group for a
 simple orthorhombic supercell.

 Subroutine GETGRP returns: Found  4 space group operations
 (whereof  1 operations were pure point group operations)
 out of a pool of  8 trial point group operations.

The static configuration has the point symmetry C_1 .
 The point group associated with its full space group is C_2h.

Analysis of symmetry for dynamics (positions and initial velocities):
 Subroutine PRICEL returns:
 Original cell was already a primitive cell.

[...]

The dynamic configuration has the point symmetry C_1 .
 The point group associated with its full space group is C_2h.

Analysis of constrained symmetry for selective dynamics:
 Subroutine PRICEL returns:
 Original cell was already a primitive cell.

 Routine SETGRP: Setting up the symmetry group for a
 simple orthorhombic supercell.

 Subroutine GETGRP returns: Found  4 space group operations
 (whereof  1 operations were pure point group operations)
 out of a pool of  8 trial point group operations.

The constrained configuration has the point symmetry C_1 .
 The point group associated with its full space group is C_2h.

 Subroutine INISYM returns: Found  4 space group operations
 (whereof  1 operations are pure point group operations),
 and found     1 'primitive' translations

 KPOINTS: k-density: 8.0

Automatic generation of k-mesh.
Space group operators:
 irot       det(A)        alpha          n_x          n_y          n_z        tau_x        tau_y        tau_z
    1     1.000000     0.000000     1.000000     0.000000     0.000000     0.000000     0.000000     0.000000
    2    -1.000000     0.000000     1.000000     0.000000     0.000000    -0.603928     0.000000     0.000000
    3     1.000000   180.000000     0.000000     1.000000     0.000000    -0.603928     0.500000     0.000000
    4    -1.000000   180.000000     0.000000     1.000000     0.000000     0.000000     0.500000     0.000000

 Subroutine IBZKPT returns following result:

 Found     15 irreducible k-points:

 Following reciprocal coordinates:
            Coordinates               Weight
  0.000000  0.000000  0.000000      1.000000
  0.000000  0.125000  0.000000      2.000000
  0.000000  0.250000  0.000000      2.000000
  0.000000  0.375000  0.000000      2.000000
  0.000000  0.500000  0.000000      1.000000
  0.000000  0.000000  0.200000      2.000000
  0.000000  0.125000  0.200000      4.000000
  0.000000  0.250000  0.200000      4.000000
  0.000000  0.375000  0.200000      4.000000
  0.000000  0.500000  0.200000      2.000000
  0.000000  0.000000  0.400000      2.000000
  0.000000  0.125000  0.400000      4.000000
  0.000000  0.250000  0.400000      4.000000
  0.000000  0.375000  0.400000      4.000000
  0.000000  0.500000  0.400000      2.000000

 Following cartesian coordinates:
            Coordinates               Weight
  0.000000  0.000000  0.000000      1.000000
  0.000000  0.018442  0.000000      2.000000
  0.000000  0.036885  0.000000      2.000000
  0.000000  0.055327  0.000000      2.000000
  0.000000  0.073770  0.000000      1.000000
  0.000000  0.000000  0.017238      2.000000
  0.000000  0.018442  0.017238      4.000000
  0.000000  0.036885  0.017238      4.000000
  0.000000  0.055327  0.017238      4.000000
  0.000000  0.073770  0.017238      2.000000
  0.000000  0.000000  0.034476      2.000000
  0.000000  0.018442  0.034476      4.000000
  0.000000  0.036885  0.034476      4.000000
  0.000000  0.055327  0.034476      4.000000
  0.000000  0.073770  0.034476      2.000000

 TETIRR: Found    108 inequivalent tetrahedra from      240

 SYSTEM =  unknown system
 POSCAR =  ba8 si16

 Startparameter for this run:
   NWRITE =      2    write-flag & timer
   PREC   = normal    normal or accurate (medium, high low for compatibility)
   ISTART =      0    job   : 0-new  1-cont  2-samecut
   ICHARG =      2    charge: 1-file 2-atom 10-const
   ISPIN  =      1    spin polarized calculation?
   LNONCOLLINEAR =      F non collinear calculations
   LSORBIT =      F    spin-orbit coupling
   INIWAV =      1    electr: 0-lowe 1-rand  2-diag
   LASPH  =      F    aspherical Exc in radial PAW
   METAGGA=      F    non-selfconsistent MetaGGA calc.

 Electronic Relaxation 1
   ENCUT  =  500.0 eV  36.75 Ry    6.06 a.u.  43.77 12.36 21.15*2*pi/ulx,y,z
   ENINI  =  500.0     initial cutoff
   ENAUG  =  351.2 eV  augmentation charge cutoff
   NELM   =    100;   NELMIN=  2; NELMDL= -5     # of ELM steps
   EDIFF  = 0.1E-05   stopping-criterion for ELM
   LREAL  =      T    real-space projection
   NLSPLINE    = F    spline interpolate recip. space projectors
   LCOMPAT=      F    compatible to vasp.4.4
   GGA_COMPAT  = T    GGA compatible to vasp.4.4-vasp.4.6
   LMAXPAW     = -100 max onsite density
   LMAXMIX     =    2 max onsite mixed and CHGCAR
   VOSKOWN=      0    Vosko Wilk Nusair interpolation
   ROPT   =   -0.00050  -0.00050
 Ionic relaxation
   EDIFFG = -.1E-02   stopping-criterion for IOM
   NSW    =      0    number of steps for IOM
   NBLOCK =      1;   KBLOCK =      1    inner block; outer block
   IBRION =     -1    ionic relax: 0-MD 1-quasi-New 2-CG
   NFREE  =      0    steps in history (QN), initial steepest desc. (CG)
   ISIF   =      2    stress and relaxation
   IWAVPR =     10    prediction:  0-non 1-charg 2-wave 3-comb
   ISYM   =      2    0-nonsym 1-usesym 2-fastsym
   LCORR  =      T    Harris-Foulkes like correction to forces

   POTIM  = 0.3000    time-step for ionic-motion
   TEIN   =    0.0    initial temperature
   TEBEG  =    0.0;   TEEND  =   0.0 temperature during run
   SMASS  =  -3.00    Nose mass-parameter (am)
   estimated Nose-frequenzy (Omega)   =  0.10E-29 period in steps =****** mass=  -0.132E-25a.u.
   SCALEE = 1.0000    scale energy and forces
   NPACO  =    256;   APACO  = 16.0  distance and # of slots for P.C.
   PSTRESS=    0.0 pullay stress

[...]

 BZINTS: Fermi energy:  6.886393;144.000000 electrons
         Band energy:-495.332866;  BLOECHL correction: -0.034147

 eigenvalue-minimisations  :  2776
 total energy-change (2. order) : 0.1156828E+04  (-0.4795219E+04)
 number of electron     144.0000000 magnetization
 augmentation part      144.0000000 magnetization

 Free energy of the ion-electron system (eV)
  alpha Z        PSCENC =       166.34077906
  Ewald energy   TEWEN  =     11014.78904655
  -Hartree energ DENC   =    -17149.90049484
  -exchange      EXHF   =         0.00000000
  -V(xc)+E(xc)   XCENC  =        45.61829335
  PAW double counting   =      3711.26622449    -3423.01674647
  entropy T*S    EENTRO =         0.00000000
  eigenvalues    EBANDS =      -495.33286592
  atomic energy  EATOM  =      7287.06411261
  Solvation  Ediel_sol  =         0.00000000
  free energy    TOTEN  =      1156.82834883 eV

  energy without entropy =     1156.82834883  energy(sigma->0) =     1156.82834883

[...]

 eigenvalue-minimisations  :  3776
 total energy-change (2. order) :-0.1109244E+04  (-0.1081497E+04)
 number of electron     144.0000000 magnetization
 augmentation part      144.0000000 magnetization

[...]

 Broyden mixing:
  rms(total) = 0.96378E+00    rms(broyden)= 0.96377E+00
  rms(prec ) = 0.12340E+01
  weight for this iteration     100.00

[...]

 eigenvalues of (default mixing * dielectric matrix)
  average eigenvalue GAMMA=   1.5210
  1.5210

[...]

 eigenvalue-minimisations  :  3280
 total energy-change (2. order) : 0.1080173E-03  (-0.1222418E-02)
 number of electron     143.9999990 magnetization
 augmentation part      -17.0574042 magnetization

[...]

 Broyden mixing:
  rms(total) = 0.87936E-05    rms(broyden)= 0.87936E-05
  rms(prec ) = 0.13498E-04
  weight for this iteration     100.00

 eigenvalues of (default mixing * dielectric matrix)
  average eigenvalue GAMMA=   2.3660
  9.0170  7.0471  4.2546  3.5611  2.6613  2.5352  2.0137  1.7457  0.9049  0.9049
  1.4111  1.4111  1.2340  1.2340  1.1288  0.9577  0.9577  0.9873  0.9873

[...]

--------------------------------------- Iteration      1(  25)  ---------------------------------------

 BZINTS: Fermi energy: -0.723685;144.000000 electrons
         Band energy:***********;  BLOECHL correction:  0.000000

 eigenvalue-minimisations  :  1928
 total energy-change (2. order) :-0.6435921E-06  (-0.1232391E-07)
 number of electron     143.9999990 magnetization
 augmentation part      -17.0592611 magnetization

 Free energy of the ion-electron system (eV)
  alpha Z        PSCENC =       166.34077906
  Ewald energy   TEWEN  =     11014.78904655
  -Hartree energ DENC   =    -17442.16568988
  -exchange      EXHF   =         0.00000000
  -V(xc)+E(xc)   XCENC  =        52.53216521
  PAW double counting   =      3834.45051090    -3562.86669256
  entropy T*S    EENTRO =         0.00000000
  eigenvalues    EBANDS =     -1463.89634751
  atomic energy  EATOM  =      7287.06411261
  Solvation  Ediel_sol  =         0.00000000
  free energy    TOTEN  =      -113.75211562 eV

  energy without entropy =     -113.75211562  energy(sigma->0) =     -113.75211562

 average (electrostatic) potential at core
  the test charge radii are     1.2192  0.9892
  (the norm of the test charge is              1.0000)
       1 -41.1224       2 -41.1224       3 -39.7343       4 -39.7343       5 -40.1063
       6 -40.1063       7 -40.3625       8 -40.3625       9 -90.5749      10 -90.5749
      11 -90.9446      12 -90.9446      13 -90.5749      14 -90.5749      15 -90.9446
      16 -90.9446      17 -90.9977      18 -90.9977      19 -90.5770      20 -90.5770
      21 -90.7399      22 -90.7399      23 -90.9511      24 -90.9511

 E-fermi :  -0.7237     XC(G=0):  -4.1390     alpha+bet : -3.8221

 k-point     1 :       0.0000    0.0000    0.0000
  band No.  band energies     occupation
      1     -29.6639      2.00000
      2     -29.6638      2.00000
      3     -28.8873      2.00000
      4     -28.8863      2.00000
      5     -28.6804      2.00000
      6     -28.6804      2.00000
      7     -28.2975      2.00000
      8     -28.2966      2.00000
      9     -14.9436      2.00000
     10     -14.9432      2.00000
     11     -14.8760      2.00000
     12     -14.8758      2.00000
     13     -14.7962      2.00000
     14     -14.7961      2.00000
     15     -14.1579      2.00000
     16     -14.1481      2.00000
     17     -14.1044      2.00000
     18     -14.0877      2.00000
     19     -14.0839      2.00000
     20     -14.0647      2.00000
     21     -14.0508      2.00000
     22     -14.0436      2.00000
     23     -13.9238      2.00000
     24     -13.9177      2.00000
     25     -13.8873      2.00000
     26     -13.8848      2.00000
     27     -13.5939      2.00000
     28     -13.5647      2.00000
     29     -13.5234      2.00000
     30     -13.5147      2.00000
     31     -13.5126      2.00000
     32     -13.5033      2.00000
     33     -11.2201      2.00000
     34     -11.1759      2.00000
     35     -10.9539      2.00000
     36     -10.9363      2.00000
     37      -6.4914      2.00000
     38      -6.4652      2.00000
     39      -6.3099      2.00000
     40      -6.2464      2.00000
     41      -6.2323      2.00000
     42      -6.2210      2.00000
     43      -6.1525      2.00000
     44      -6.0615      2.00000
     45      -6.0043      2.00000
     46      -5.8647      2.00000
     47      -5.8332      2.00000
     48      -5.8234      2.00000
     49      -3.6612      2.00000
     50      -3.2498      2.00000
     51      -2.7462      2.00000
     52      -2.7208      2.00000
     53      -2.5552      2.00000
     54      -2.3282      2.00000
     55      -2.0847      2.00000
     56      -1.9734      2.00000
     57      -1.9111      2.00000
     58      -1.8864      2.00000
     59      -1.8809      2.00000
     60      -1.7865      2.00000
[...]
     74       0.2997      0.00000
     75       0.4439      0.00000
     76       0.5402      0.00000
     77       0.5537      0.00000
     78       0.7526      0.00000
     79       0.7666      0.00000
     80       1.0030      0.00000
     81       1.0810      0.00000
     82       1.1601      0.00000
     83       1.1749      0.00000
     84       1.2101      0.00000
     85       1.2594      0.00000
     86       1.2805      0.00000
     87       1.4119      0.00000
     88       1.5054      0.00000

[...]

 k-point    15 :       0.0000    0.5000    0.4000
  band No.  band energies     occupation
      1     -29.6637      2.00000
      2     -29.6637      2.00000
      3     -28.8867      2.00000
      4     -28.8866      2.00000
      5     -28.6804      2.00000
      6     -28.6804      2.00000
      7     -28.2972      2.00000
      8     -28.2972      2.00000
      9     -14.9401      2.00000
     10     -14.9401      2.00000
     11     -14.8820      2.00000
     12     -14.8819      2.00000
     13     -14.8117      2.00000
     14     -14.8117      2.00000
     15     -14.1615      2.00000
     16     -14.1614      2.00000
     17     -14.1134      2.00000
     18     -14.1134      2.00000
     19     -14.0621      2.00000
     20     -14.0621      2.00000
     21     -14.0495      2.00000
     22     -14.0495      2.00000
     23     -13.9164      2.00000
     24     -13.9164      2.00000
     25     -13.9108      2.00000
     26     -13.9108      2.00000
     27     -13.5762      2.00000
     28     -13.5762      2.00000
     29     -13.5230      2.00000
     30     -13.5230      2.00000
     31     -13.5028      2.00000
     32     -13.5028      2.00000
     33     -11.1471      2.00000
     34     -11.1470      2.00000
     35     -10.8934      2.00000
     36     -10.8934      2.00000
     37      -6.5424      2.00000
     38      -6.5423      2.00000
     39      -6.2779      2.00000
     40      -6.2779      2.00000
     41      -6.1990      2.00000
     42      -6.1990      2.00000
     43      -5.9860      2.00000
     44      -5.9860      2.00000
     45      -5.9533      2.00000
     46      -5.9532      2.00000
     47      -5.8746      2.00000
     48      -5.8745      2.00000
     49      -2.8016      2.00000
     50      -2.8016      2.00000
     51      -2.6875      2.00000
     52      -2.6875      2.00000
     53      -2.2822      2.00000
     54      -2.2822      2.00000
     55      -2.2133      2.00000
     56      -2.2133      2.00000
     57      -2.1021      2.00000
     58      -2.1021      2.00000
     59      -1.8109      2.00000
     60      -1.8109      2.00000
[...]
     74       0.1368      0.00000
     75       0.3480      0.00000
     76       0.3480      0.00000
     77       0.5439      0.00000
     78       0.5439      0.00000
     79       0.6540      0.00000
     80       0.6540      0.00000
     81       0.7425      0.00000
     82       0.7425      0.00000
     83       1.0973      0.00000
     84       1.0973      0.00000
     85       1.3006      0.00000
     86       1.3006      0.00000
     87       1.3979      0.00000
     88       1.3979      0.00000

 soft charge-density along one line, spin component           1
         0         1         2         3         4         5         6         7         8         9
 total charge-density along one line

------------------------ aborting loop because EDIFF is reached ----------------------------------------

  FORCE on cell =-STRESS in cart. coord.  units (eV):
  Direction    XX          YY          ZZ          XY          YZ          ZX
  Alpha Z   166.34078   166.34078   166.34078
  Ewald  -18695.01984 15140.51241 14569.28345    -0.00003     0.00000   168.18466
  Hartree-15647.85194 16773.54560 16316.46763     0.00000    -0.00000   132.22948
  E(xc)    -456.16435  -456.62074  -456.62530    -0.00000    -0.00000     0.05008
  Local   32929.55458-33350.27249-32315.24689     0.00002    -0.00000  -299.50046
  n-local   344.29085   344.88106   346.81859     0.06700    -0.21440    -0.87842
  augment  -171.29139  -171.85959  -171.97517    -0.00000    -0.00000     0.20332
  Kinetic  1511.84895  1531.70236  1525.67813    -0.07760    -0.81926    -0.41451
  Fock        0.00000     0.00000     0.00000     0.00000     0.00000     0.00000
  Total     -18.29237   -21.77061   -19.25878     0.00000     0.00000    -0.12585
  in kB     -15.52272   -18.47432   -16.34281     0.00000     0.00000    -0.10679

 VOLUME and BASIS-vectors are now :
  energy-cutoff  :      500.00
  volume of cell :     1888.05
      direct lattice vectors                 reciprocal lattice vectors
    24.009468079  0.000000000  0.000000000     0.041650236  0.000000000  0.000000000
     0.000000000  6.777849674  0.000000000     0.000000000  0.147539419  0.000000000
     0.000000000  0.000000000 11.602143288     0.000000000  0.000000000  0.086190971

  length of vectors
    24.009468079  6.777849674 11.602143288     0.041650236  0.147539419  0.086190971

 FORCES acting on ions
    electron-ion (+dipol)            ewald-force                    non-local-force                 convergence-correction
   0.762E+03 0.100E-04 0.500E+02   -.756E+03 0.101E-04 -.491E+02   -.423E+01 -.489E-18 -.874E+00   0.899E-04 -.744E-09 0.461E-04
   -.762E+03 -.613E-04 -.500E+02   0.756E+03 -.131E-04 0.491E+02   0.423E+01 -.582E-18 0.874E+00   -.899E-04 0.865E-09 -.461E-04
   0.922E+02 -.600E-04 -.491E+02   -.919E+02 -.175E-04 0.477E+02   0.106E+00 0.398E-18 0.142E+01   0.171E-03 0.127E-08 -.163E-03
   -.922E+02 0.105E-04 0.491E+02   0.919E+02 0.126E-04 -.477E+02   -.106E+00 -.354E-18 -.142E+01   -.171E-03 -.115E-08 0.163E-03
   0.611E+03 -.597E-04 -.509E+02   -.609E+03 -.165E-04 0.510E+02   -.172E+01 -.157E-17 -.106E+00   0.204E-03 0.103E-08 -.160E-03
   -.611E+03 0.894E-05 0.509E+02   0.609E+03 0.143E-04 -.510E+02   0.172E+01 0.141E-17 0.106E+00   -.204E-03 -.940E-09 0.160E-03
   0.350E+03 0.109E-04 -.207E+02   -.349E+03 0.125E-04 0.199E+02   -.318E+00 -.940E-18 0.822E+00   0.170E-03 -.112E-08 0.337E-04
   -.350E+03 -.614E-04 0.207E+02   0.349E+03 -.125E-04 -.199E+02   0.318E+00 0.219E-18 -.822E+00   -.170E-03 0.116E-08 -.337E-04
   0.270E+03 0.379E+02 -.498E+02   -.270E+03 -.389E+02 0.503E+02   -.177E+00 0.940E+00 -.470E+00   0.131E-03 0.542E-04 -.786E-04
   -.270E+03 -.379E+02 0.498E+02   0.270E+03 0.389E+02 -.503E+02   0.177E+00 -.940E+00 0.470E+00   -.131E-03 -.542E-04 0.786E-04
   0.112E+03 -.361E+02 0.613E+01   -.112E+03 0.366E+02 -.520E+01   0.327E+00 -.539E+00 -.925E+00   0.141E-04 -.730E-04 0.129E-04
   -.112E+03 0.361E+02 -.613E+01   0.112E+03 -.366E+02 0.520E+01   -.327E+00 0.539E+00 0.925E+00   -.141E-04 0.730E-04 -.129E-04
   -.270E+03 0.379E+02 0.498E+02   0.270E+03 -.389E+02 -.503E+02   0.177E+00 0.940E+00 0.470E+00   -.131E-03 0.542E-04 0.786E-04
   0.270E+03 -.379E+02 -.498E+02   -.270E+03 0.389E+02 0.503E+02   -.177E+00 -.940E+00 -.470E+00   0.131E-03 -.542E-04 -.786E-04
   -.112E+03 -.361E+02 -.613E+01   0.112E+03 0.366E+02 0.520E+01   -.327E+00 -.539E+00 0.925E+00   -.141E-04 -.730E-04 -.129E-04
   0.112E+03 0.361E+02 0.613E+01   -.112E+03 -.366E+02 -.520E+01   0.327E+00 0.539E+00 -.925E+00   0.141E-04 0.730E-04 0.129E-04
   0.323E+03 -.508E-05 0.491E+02   -.324E+03 -.612E-05 -.494E+02   0.104E+01 0.342E-18 0.323E+00   0.119E-03 0.324E-09 0.576E-04
   -.323E+03 0.621E-05 -.491E+02   0.324E+03 0.636E-05 0.494E+02   -.104E+01 -.382E-18 -.323E+00   -.119E-03 -.321E-09 -.576E-04
   0.330E+02 0.842E-05 -.124E+02   -.317E+02 0.740E-05 0.116E+02   -.110E+01 0.506E-18 0.849E+00   0.162E-04 -.445E-09 -.424E-04
   -.330E+02 -.384E-05 0.124E+02   0.317E+02 -.704E-05 -.116E+02   0.110E+01 0.523E-18 -.849E+00   -.162E-04 0.427E-09 0.424E-04
   0.234E+03 0.429E-05 0.153E+02   -.234E+03 0.805E-05 -.159E+02   0.134E-01 -.610E-18 0.656E+00   0.123E-03 -.388E-09 0.697E-05
   -.234E+03 -.645E-05 -.153E+02   0.234E+03 -.811E-05 0.159E+02   -.134E-01 -.485E-18 -.656E+00   -.123E-03 0.378E-09 -.698E-05
   0.148E+03 -.721E-05 0.610E+02   -.148E+03 -.706E-05 -.621E+02   -.539E+00 -.247E-17 0.108E+01   0.322E-04 0.419E-09 0.128E-03
   -.148E+03 0.365E-05 -.610E+02   0.148E+03 0.698E-05 0.621E+02   0.539E+00 0.131E-17 -.108E+01   -.322E-04 -.409E-09 -.128E-03
   0.769E-04 -.212E-03 0.863E-04   0.227E-12 0.124E-13 -.213E-13   0.000E+00 -.112E-15 -.222E-15   0.230E-07 0.357E-09 -.682E-08

 POSITION                                       TOTAL-FORCE (eV/Angst)
      0.13670      1.69446      8.17354         1.042018      0.000000      0.000689
      9.37277      5.08339      3.42860        -1.042018      0.000000     -0.000689
      4.36803      5.08339      2.11517         0.363998      0.000000      0.000539
      5.14143      1.69446      9.48697        -0.363998      0.000000     -0.000539
      1.43529      5.08339     10.59228         0.723184      0.000000     -0.000788
      8.07418      1.69446      1.00987        -0.723184      0.000000      0.000788
      3.06944      1.69446      4.53157         0.502858      0.000000      0.000182
      6.44002      5.08339      7.07057        -0.502858      0.000000     -0.000182
      1.75027      0.50154      1.59582         0.055113     -0.000346     -0.000180
      7.75920      6.27631     10.00632        -0.055113      0.000346      0.000180
      2.75446      6.29129      7.68915         0.236591     -0.000166      0.000273
      6.75500      0.48656      3.91299        -0.236591      0.000166     -0.000273
      7.75920      3.89046     10.00632        -0.055113     -0.000346      0.000180
      1.75027      2.88739      1.59582         0.055113      0.000346     -0.000180
      6.75500      2.90236      3.91299        -0.236591     -0.000166     -0.000273
      2.75446      3.87549      7.68915         0.236591      0.000166      0.000273
      0.74693      5.08339      7.02906         0.007244      0.000000      0.000267
      8.76254      1.69446      4.57308        -0.007244      0.000000     -0.000267
      3.75780      1.69446      0.88712         0.129329      0.000000      0.000117
      5.75166      5.08339     10.71502        -0.129329      0.000000     -0.000117
      1.78112      1.69446     11.10029        -0.031911      0.000000      0.000614
      7.72835      5.08339      0.50186         0.031911      0.000000     -0.000614
      2.72362      5.08339      5.58697        -0.228127      0.000000      0.000618
      6.78585      1.69446      6.01518         0.228127      0.000000     -0.000618
    total drift:                                0.000077     -0.000212      0.000086

  FREE ENERGIE OF THE ION-ELECTRON SYSTEM (eV)
  free  energy   TOTEN  =      -113.75211562 eV

  energy  without entropy=     -113.75211562  energy(sigma->0) =     -113.75211562

 writing wavefunctions
 BZINTS: Fermi energy: -0.723685;144.000000 electrons
         Band energy:***********;  BLOECHL correction:  0.000000