 vasp.5.4.4.18Apr17-6-g9f103f2a35 (build Nov 21 2017 15:30:27) complex

 executed on             LinuxIFC date 2020.10.09  12:20:00

 INCAR:
 POTCAR:   PAW_PBE Ba_sv 06Sep2000
 POTCAR:   PAW_PBE Si 05Jan2001

 POTCAR:   PAW_PBE Ba_sv 06Sep2000
   VRHFIN =Ba: 5s5p6s

   TITEL  = PAW_PBE Ba_sv 06Sep2000
   POMASS =  137.327; ZVAL   =   10.000    mass and valenz
   ENMAX  =  187.210; ENMIN  =  140.408 eV
   QCUT   =   -3.709; QGAM   =    7.419    optimization parameters

   Description
     l     E      TYP  RCUT    TYP  RCUT
     0   .000     23  2.800
     0   .000     23  2.800
     1   .000     23  2.700
     1  2.000     23  2.700
     2   .000     23  2.700
     2   .000     23  2.700

 POTCAR:   PAW_PBE Si 05Jan2001
   VRHFIN =Si: s2p2

   TITEL  = PAW_PBE Si 05Jan2001
   POMASS =   28.085; ZVAL   =    4.000    mass and valenz
   ENMAX  =  245.345; ENMIN  =  184.009 eV
   QCUT   =   -4.246; QGAM   =    8.493    optimization parameters

   Description
     l     E      TYP  RCUT    TYP  RCUT
     0   .000     23  1.900
     0   .000     23  1.900
     1   .000     23  1.900
     1   .000     23  1.900
     2   .000      7  1.900

 Optimization of the real space projectors (new method)

 maximal supplied QI-value         = 13.42
 optimisation between [QCUT,QGAM] = [ 11.40, 22.81] = [ 36.42,145.68] Ry
 Optimized for a Real-space Cutoff    1.56 Angstroem

   l    n(q)    QCUT    max X(q) W(low)/X(q) W(high)/X(q)  e(spline)
   0     11    11.404     7.198    0.14E-04    0.26E-04    0.99E-07
   0     11    11.404    15.603    0.29E-04    0.72E-04    0.44E-06
   1     10    11.404     3.746    0.20E-04    0.24E-04    0.43E-07
   1     10    11.404     4.362    0.22E-03    0.97E-04    0.22E-06
   2     10    11.404     5.782    0.83E-04    0.62E-05    0.27E-06
   2     10    11.404    65.505    0.42E-03    0.31E-04    0.12E-05
 Optimization of the real space projectors (new method)

 maximal supplied QI-value         = 19.84
 optimisation between [QCUT,QGAM] = [ 11.31, 22.82] = [ 35.82,145.81] Ry
 Optimized for a Real-space Cutoff    1.16 Angstroem

   l    n(q)    QCUT    max X(q) W(low)/X(q) W(high)/X(q)  e(spline)
   0      8    11.310     8.708    0.14E-04    0.11E-04    0.43E-08
   0      8    11.310   106.241    0.27E-03    0.30E-03    0.38E-07
   1      7    11.310     5.901    0.82E-05    0.48E-04    0.19E-07
   1      7    11.310    73.241    0.27E-03    0.27E-03    0.74E-07

 PAW_PBE Ba_sv 06Sep2000                :
 PAW_PBE Si 05Jan2001                   :

 POSCAR: ba8 si16
  positions in direct lattice
  velocities in cartesian coordinates
 exchange correlation table for  LEXCH =       43
   RHO(1)=    0.500       N(1)  =     2000
   RHO(2)=  100.500       N(2)  =     4000

 ion  position               nearest neighbor table
   1  0.015  0.250  0.692-  24 3.37  18 3.37  13 3.40  10 3.40  16 3.42  11 3.42  21 3.53  17 3.61
                            17 3.61   5 4.37   5 4.37   7 4.37   4 4.65   4 4.65
   2  0.985  0.750  0.308-  23 3.37  17 3.37   9 3.40  14 3.40  12 3.42  15 3.42  22 3.53  18 3.61
                            18 3.61   6 4.37   6 4.37   8 4.37   3 4.65   3 4.65
   3  0.485  0.750  0.192-  22 3.37  20 3.37  12 3.40  15 3.40   9 3.42  14 3.42  23 3.53  19 3.61
                            19 3.61   7 4.37   7 4.37   5 4.37   2 4.65   2 4.65
   4  0.515  0.250  0.808-  21 3.37  19 3.37  16 3.40  11 3.40  13 3.42  10 3.42  24 3.53  20 3.61
                            20 3.61   8 4.37   8 4.37   6 4.37   1 4.65   1 4.65
   5  0.161  0.750  0.907-  10 3.43  13 3.43  21 3.44  21 3.44  11 3.48  16 3.48  22 3.51   9 3.52
                            14 3.52  17 3.70  20 3.75   1 4.37   1 4.37   3 4.37
   6  0.839  0.250  0.093-  14 3.43   9 3.43  22 3.44  22 3.44  15 3.48  12 3.48  21 3.51  13 3.52
                            10 3.52  18 3.70  19 3.75   2 4.37   2 4.37   4 4.37
   7  0.339  0.250  0.407-  15 3.43  12 3.43  23 3.44  23 3.44  14 3.48   9 3.48  24 3.51  16 3.52
                            11 3.52  19 3.70  18 3.75   3 4.37   3 4.37   1 4.37
   8  0.661  0.750  0.593-  11 3.43  16 3.43  24 3.44  24 3.44  10 3.48  13 3.48  23 3.51  12 3.52
                            15 3.52  20 3.70  17 3.75   4 4.37   4 4.37   2 4.37
   9  0.193  0.071  0.146-  14 2.41  21 2.41  19 2.43   2 3.40   3 3.42   6 3.43   7 3.48   5 3.52

  10  0.807  0.929  0.854-  13 2.41  22 2.41  20 2.43   1 3.40   4 3.42   5 3.43   8 3.48   6 3.52

[...]

  24  0.696  0.250  0.535-  15 2.41  12 2.41  18 2.45   1 3.37   8 3.44   8 3.44   7 3.51   4 3.53

  LATTYP: Found a simple orthorhombic cell.
 ALAT       =     6.7268619782
 B/A-ratio  =     1.3242817429
 C/A-ratio  =     1.7103982072

  Lattice vectors:

 A1 = (   0.0000000000,  -6.7268619782,   0.0000000000)
 A2 = (  -8.9082605047,   0.0000000000,   0.0000000000)
 A3 = (   0.0000000000,   0.0000000000, -11.5056126680)

Analysis of symmetry for initial positions (statically):
 Subroutine PRICEL returns:
 Original cell was already a primitive cell.

 Routine SETGRP: Setting up the symmetry group for a
 simple orthorhombic supercell.

 Subroutine GETGRP returns: Found  8 space group operations
 (whereof  2 operations were pure point group operations)
 out of a pool of  8 trial point group operations.

The static configuration has the point symmetry S_2 .
 The point group associated with its full space group is D_2h.

Analysis of symmetry for dynamics (positions and initial velocities):
 Subroutine PRICEL returns:
 Original cell was already a primitive cell.

 Routine SETGRP: Setting up the symmetry group for a
 simple orthorhombic supercell.

 Subroutine GETGRP returns: Found  8 space group operations
 (whereof  2 operations were pure point group operations)
 out of a pool of  8 trial point group operations.

The dynamic configuration has the point symmetry S_2 .
 The point group associated with its full space group is D_2h.

 Subroutine INISYM returns: Found  8 space group operations
 (whereof  2 operations are pure point group operations),
 and found     1 'primitive' translations

 KPOINTS: k-points along high symmetry lines
  interpolating k-points between supplied coordinates
  k-points in reciprocal lattice
Space group operators:
 irot       det(A)        alpha          n_x          n_y          n_z        tau_x        tau_y        tau_z
    1     1.000000     0.000000     1.000000     0.000000     0.000000     0.000000     0.000000     0.000000
    2    -1.000000     0.000000     1.000000     0.000000     0.000000     0.000000     0.000000     0.000000
    3     1.000000   180.000000     0.000000     0.000000     1.000000    -0.500000     0.000000    -0.500000
    4    -1.000000   180.000000     0.000000     0.000000     1.000000    -0.500000     0.000000    -0.500000
    5     1.000000   180.000000     1.000000     0.000000     0.000000    -0.500000    -0.500000    -0.500000
    6    -1.000000   180.000000     1.000000     0.000000     0.000000    -0.500000    -0.500000    -0.500000
    7     1.000000   180.000000     0.000000     1.000000     0.000000    -0.000000    -0.500000    -0.000000
    8    -1.000000   180.000000     0.000000     1.000000     0.000000     0.000000    -0.500000     0.000000

 SYSTEM =  unknown system
 POSCAR =  ba8 si16

 Startparameter for this run:
   NWRITE =      2    write-flag & timer
   PREC   = normal    normal or accurate (medium, high low for compatibility)
   ISTART =      0    job   : 0-new  1-cont  2-samecut
   ICHARG =     11    charge: 1-file 2-atom 10-const
   ISPIN  =      1    spin polarized calculation?
   LNONCOLLINEAR =      F non collinear calculations
   LSORBIT =      F    spin-orbit coupling
   INIWAV =      1    electr: 0-lowe 1-rand  2-diag
   LASPH  =      T    aspherical Exc in radial PAW
   METAGGA=      F    non-selfconsistent MetaGGA calc.

 Electronic Relaxation 1
   ENCUT  =  500.0 eV  36.75 Ry    6.06 a.u.  16.24 12.26 20.98*2*pi/ulx,y,z
   ENINI  =  500.0     initial cutoff
   ENAUG  =  351.2 eV  augmentation charge cutoff
   NELM   =    100;   NELMIN=  2; NELMDL= -5     # of ELM steps
   EDIFF  = 0.1E-05   stopping-criterion for ELM
   LREAL  =      T    real-space projection
   NLSPLINE    = F    spline interpolate recip. space projectors
   LCOMPAT=      F    compatible to vasp.4.4
   GGA_COMPAT  = T    GGA compatible to vasp.4.4-vasp.4.6
   LMAXPAW     = -100 max onsite density
   LMAXMIX     =    2 max onsite mixed and CHGCAR
   VOSKOWN=      0    Vosko Wilk Nusair interpolation
   ROPT   =   -0.00050  -0.00050
 Ionic relaxation
   EDIFFG = -.1E-01   stopping-criterion for IOM
   NSW    =      0    number of steps for IOM
   NBLOCK =      1;   KBLOCK =      1    inner block; outer block
   IBRION =     -1    ionic relax: 0-MD 1-quasi-New 2-CG
   NFREE  =      0    steps in history (QN), initial steepest desc. (CG)
   ISIF   =      2    stress and relaxation
   IWAVPR =     10    prediction:  0-non 1-charg 2-wave 3-comb
   ISYM   =      2    0-nonsym 1-usesym 2-fastsym
   LCORR  =      T    Harris-Foulkes like correction to forces

   POTIM  = 0.3000    time-step for ionic-motion
   TEIN   =    0.0    initial temperature
   TEBEG  =    0.0;   TEEND  =   0.0 temperature during run
   SMASS  =  -3.00    Nose mass-parameter (am)
   estimated Nose-frequenzy (Omega)   =  0.10E-29 period in steps =****** mass=  -0.181E-26a.u.
   SCALEE = 1.0000    scale energy and forces
   NPACO  =    256;   APACO  = 16.0  distance and # of slots for P.C.
   PSTRESS=    0.0 pullay stress

  Mass of Ions in am
   POMASS = 137.33 28.09
  Ionic Valenz
   ZVAL   =  10.00  4.00
  Atomic Wigner-Seitz radii
  virtual crystal weights
   VCA    =   1.00  1.00
   NELECT =     144.0000    total number of electrons
   NUPDOWN=      -1.0000    fix difference up-down

 DOS related values:
   EMIN   =  10.00;   EMAX   =-10.00  energy-range for DOS
   EFERMI =   0.00
   ISMEAR =     0;   SIGMA  =   0.01  broadening in eV -4-tet -1-fermi 0-gaus

 Electronic relaxation 2 (details)
   IALGO  =     38    algorithm
   LDIAG  =      T    sub-space diagonalisation (order eigenvalues)
   LSUBROT=      F    optimize rotation matrix (better conditioning)
   TURBO    =      0    0=normal 1=particle mesh
   IRESTART =      0    0=no restart 2=restart with 2 vectors
   NREBOOT  =      0    no. of reboots
   NMIN     =      0    reboot dimension
   EREF     =   0.00    reference energy to select bands
   IMIX   =      4    mixing-type and parameters
     AMIX     =   0.40;   BMIX     =  1.00
     AMIX_MAG =   1.60;   BMIX_MAG =  1.00
     AMIN     =   0.10
     WC   =   100.;   INIMIX=   1;  MIXPRE=   1;  MAXMIX= -45

 Intra band minimization:
   WEIMIN = 0.0000     energy-eigenvalue tresh-hold
   EBREAK =  0.28E-08  absolut break condition
   DEPER  =   0.30     relativ break condition

   TIME   =   0.40     timestep for ELM

  volume/ion in A,a.u.               =      28.73       193.87
  Fermi-wavevector in a.u.,A,eV,Ry     =   0.971309  1.835507 12.836288  0.943441
  Thomas-Fermi vector in A             =   2.101515

 Write flags
   LWAVE        =      T    write WAVECAR
   LDOWNSAMPLE  =      F    k-point downsampling of WAVECAR
   LCHARG       =      T    write CHGCAR
[...]
 maximum index in each direction:
   IXMAX=   16   IYMAX=   12   IZMAX=   20
   IXMIN=  -16   IYMIN=  -12   IZMIN=  -21

 real space projection operators:
  max/ min on nodes  :       1156.73       1066.36

 parallel 3D FFT for wavefunctions:
    minimum data exchange during FFTs selected (reduces bandwidth)
 parallel 3D FFT for charge:
    minimum data exchange during FFTs selected (reduces bandwidth)

 initial charge density was supplied:
 number of electron     144.0000001 magnetization
 keeping initial charge density in first step

 Maximum index for non-local projection operator          860
 Maximum index for augmentation-charges         1209 (set IRDMAX)

 First call to EWALD:  gamma=   0.201
 Maximum number of real-space cells 3x 3x 2
 Maximum number of reciprocal cells 3x 2x 3

--------------------------------------- Iteration      1(   1)  ---------------------------------------

vdW kernel read from vdw_kernel.bindat
  0.0000  0.2424  0.5071  0.7962  1.1119  1.4567  1.8333  2.2446  2.6937  3.1842
  3.7199  4.3049  4.9438  5.6415  6.4036  7.2358  8.1446  9.1372 10.2212 11.4050
 12.6979 14.1099 15.6519 17.3360 19.1751 21.1837 23.3773 25.7729 28.3892 31.2465
 34.3669 37.7748 41.4965 45.5611 50.0000

 eigenvalue-minimisations  : 17616
 total energy-change (2. order) : 0.8561138E+03  (-0.5734543E+04)
 number of electron     144.0000001 magnetization
 augmentation part      144.0000001 magnetization

 Free energy of the ion-electron system (eV)
  alpha Z        PSCENC =       466.78151634
  Ewald energy   TEWEN  =     -6442.96156159
  -Hartree energ DENC   =      -899.32484706
  -exchange      EXHF   =         0.00000000
  -V(xc)+E(xc)   XCENC  =        49.11024097
  PAW double counting   =      3865.12538590    -3570.76707164
  entropy T*S    EENTRO =        -0.00022787
  eigenvalues    EBANDS =       118.99888513
  atomic energy  EATOM  =      7269.15145414
  Solvation  Ediel_sol  =         0.00000000
  free energy    TOTEN  =       856.11377433 eV

  energy without entropy =      856.11400220  energy(sigma->0) =      856.11388826

[...]

 eigenvalue-minimisations  : 23792
 total energy-change (2. order) :-0.8724051E+03  (-0.8477117E+03)
 number of electron     144.0000001 magnetization
 augmentation part      144.0000001 magnetization

[...]

--------------------------------------- Iteration      1(   8)  ---------------------------------------

 eigenvalue-minimisations  : 18272
 total energy-change (2. order) :-0.6381024E-06  (-0.6380237E-06)
 number of electron     144.0000001 magnetization
 augmentation part      144.0000001 magnetization

 Free energy of the ion-electron system (eV)
  alpha Z        PSCENC =       466.78151634
  Ewald energy   TEWEN  =     -6442.96156159
  -Hartree energ DENC   =      -899.32484706
  -exchange      EXHF   =         0.00000000
  -V(xc)+E(xc)   XCENC  =        49.11024097
  PAW double counting   =      3865.12538590    -3570.76707164
  entropy T*S    EENTRO =        -0.00000000
  eigenvalues    EBANDS =      -835.74054903
  atomic energy  EATOM  =      7269.15145414
  Solvation  Ediel_sol  =         0.00000000
  free energy    TOTEN  =       -98.62543196 eV

  energy without entropy =      -98.62543196  energy(sigma->0) =      -98.62543196

 average (electrostatic) potential at core
  the test charge radii are     1.2192  0.9892
  (the norm of the test charge is              1.0000)
       1 -35.9697       2 -35.9697       3 -35.9697       4 -35.9697       5 -36.0793
       6 -36.0793       7 -36.0793       8 -36.0793       9 -85.1089      10 -85.1089
      11 -85.1089      12 -85.1089      13 -85.1089      14 -85.1089      15 -85.1089
      16 -85.1089      17 -85.1782      18 -85.1782      19 -85.1782      20 -85.1782
      21 -85.0671      22 -85.0671      23 -85.0671      24 -85.0671

 E-fermi :   3.6374     XC(G=0):  -8.9674     alpha+bet :-10.5295

 k-point     1 :       0.0000    0.0000    0.0000
  band No.  band energies     occupation
      1     -23.9643      2.00000
      2     -23.9587      2.00000
      3     -23.9551      2.00000
      4     -23.9549      2.00000
      5     -23.8790      2.00000
      6     -23.8759      2.00000
      7     -23.8709      2.00000
      8     -23.8688      2.00000
      9      -9.5413      2.00000
     10      -9.5198      2.00000
     11      -9.4772      2.00000
     12      -9.4702      2.00000
     13      -9.4258      2.00000
     14      -9.3824      2.00000
     15      -9.3788      2.00000
     16      -9.3610      2.00000
     17      -9.3566      2.00000
     18      -9.3289      2.00000
     19      -9.3211      2.00000
     20      -9.3174      2.00000
     21      -9.2729      2.00000
     22      -9.2377      2.00000
     23      -9.2031      2.00000
     24      -9.2021      2.00000
     25      -9.1975      2.00000
     26      -9.1726      2.00000
     27      -9.1598      2.00000
     28      -9.1590      2.00000
     29      -9.1427      2.00000
     30      -9.1413      2.00000
     31      -9.1291      2.00000
     32      -9.1180      2.00000
     33      -7.2112      2.00000
     34      -6.9486      2.00000
     35      -6.9081      2.00000
     36      -6.8846      2.00000
     37      -2.5857      2.00000
     38      -2.5214      2.00000
     39      -2.2573      2.00000
     40      -2.2387      2.00000
     41      -2.1496      2.00000
     42      -2.1307      2.00000
     43      -2.1299      2.00000
     44      -2.0877      2.00000
     45      -2.0291      2.00000
     46      -1.9786      2.00000
     47      -1.9292      2.00000
     48      -1.7579      2.00000
     49       0.0089      2.00000
     50       1.0378      2.00000
     51       1.2279      2.00000
     52       1.2682      2.00000
     53       1.3226      2.00000
     54       1.5398      2.00000
     55       1.7711      2.00000
     56       1.8350      2.00000
     57       1.8420      2.00000
     58       1.8990      2.00000
     59       1.9123      2.00000
     60       2.1401      2.00000
[...]
     74       4.5437      0.00000
     75       4.8823      0.00000
     76       5.0623      0.00000
     77       5.0721      0.00000
     78       5.4311      0.00000
     79       5.6256      0.00000
     80       5.8183      0.00000
     81       5.8555      0.00000
     82       6.0922      0.00000
     83       6.1392      0.00000
     84       6.1455      0.00000
     85       6.1622      0.00000
     86       6.2506      0.00000
     87       6.2802      0.00000
     88       6.6182      0.00000

[...]

 k-point   100 :       0.5000    0.0000    0.0000
  band No.  band energies     occupation
      1     -23.9609      2.00000
      2     -23.9609      2.00000
      3     -23.9555      2.00000
      4     -23.9555      2.00000
      5     -23.8748      2.00000
      6     -23.8748      2.00000
      7     -23.8726      2.00000
      8     -23.8726      2.00000
      9      -9.5467      2.00000
     10      -9.5467      2.00000
     11      -9.4196      2.00000
     12      -9.4196      2.00000
     13      -9.3871      2.00000
     14      -9.3871      2.00000
     15      -9.3527      2.00000
     16      -9.3527      2.00000
     17      -9.3509      2.00000
     18      -9.3509      2.00000
     19      -9.3351      2.00000
     20      -9.3351      2.00000
     21      -9.3035      2.00000
     22      -9.3035      2.00000
     23      -9.2026      2.00000
     24      -9.2026      2.00000
     25      -9.1774      2.00000
     26      -9.1774      2.00000
     27      -9.1736      2.00000
     28      -9.1736      2.00000
     29      -9.1482      2.00000
     30      -9.1482      2.00000
     31      -9.1337      2.00000
     32      -9.1337      2.00000
     33      -7.0191      2.00000
     34      -7.0191      2.00000
     35      -6.8911      2.00000
     36      -6.8911      2.00000
     37      -2.5419      2.00000
     38      -2.5419      2.00000
     39      -2.3916      2.00000
     40      -2.3916      2.00000
     41      -2.1504      2.00000
     42      -2.1504      2.00000
     43      -2.1191      2.00000
     44      -2.1191      2.00000
     45      -2.0369      2.00000
     46      -2.0369      2.00000
     47      -2.0205      2.00000
     48      -2.0205      2.00000
     49       0.6925      2.00000
     50       0.6925      2.00000
     51       1.1326      2.00000
     52       1.1326      2.00000
     53       1.6384      2.00000
     54       1.6384      2.00000
     55       1.9687      2.00000
     56       1.9687      2.00000
     57       2.0222      2.00000
     58       2.0222      2.00000
     59       2.2246      2.00000
     60       2.2246      2.00000
[...]
     74       4.7649      0.00000
     75       4.8178      0.00000
     76       4.8178      0.00000
     77       4.8387      0.00000
     78       4.8387      0.00000
     79       5.2252      0.00000
     80       5.2252      0.00000
     81       5.9014      0.00000
     82       5.9015      0.00000
     83       6.0019      0.00000
     84       6.0021      0.00000
     85       6.0910      0.00000
     86       6.0914      0.00000
     87       6.7502      0.00000
     88       6.7751      0.00000

 soft charge-density along one line, spin component           1
         0         1         2         3         4         5         6         7         8         9
 total charge-density along one line

------------------------ aborting loop because EDIFF is reached ----------------------------------------

  FORCE on cell =-STRESS in cart. coord.  units (eV):
  Direction    XX          YY          ZZ          XY          YZ          ZX
  Alpha Z   466.78152   466.78152   466.78152
  Ewald   -2161.39154 -2147.30166 -2134.28631    -0.00000    -0.00000    -0.00014
  Hartree   293.85095   301.24064   304.55033     0.00000    -0.00000     0.00001
  E(xc)    -466.51602  -466.65344  -466.67527    -0.00000    -0.00000    -0.00000
  Local     135.85668   122.67902   105.40382     0.00000     0.00000     0.00009
  n-local   336.01843   340.29081   339.94646     0.00001    -0.00001     0.00001
  augment  -167.45509  -167.18069  -167.47694     0.00000    -0.00000     0.00000
  Kinetic  1553.36341  1549.19143  1554.75112    -0.00001     0.00000     0.00000
  Fock        0.00000     0.00000     0.00000     0.00000     0.00000     0.00000
  Total      -9.49167    -0.95239     2.99474     0.00000     0.00000     0.00000
  in kB     -22.05656    -2.21314     6.95912     0.00000     0.00000     0.00000

 VOLUME and BASIS-vectors are now :
  energy-cutoff  :      500.00
  volume of cell :      689.47
      direct lattice vectors                 reciprocal lattice vectors
     8.908260505  0.000000000  0.000000000     0.112255361  0.000000000  0.000000000
     0.000000000  6.726861978  0.000000000     0.000000000  0.148657725  0.000000000
     0.000000000  0.000000000 11.505612668     0.000000000  0.000000000  0.086914103

  length of vectors
     8.908260505  6.726861978 11.505612668     0.112255361  0.148657725  0.086914103

 FORCES acting on ions
    electron-ion (+dipol)            ewald-force                    non-local-force                 convergence-correction
   0.275E+01 0.804E-04 0.192E+01   -.316E+01 0.141E-04 -.196E+01   0.323E+00 -.670E-22 0.405E+00   0.322E-01 -.123E-04 -.285E+00
   -.275E+01 0.869E-05 -.192E+01   0.316E+01 -.201E-04 0.196E+01   -.323E+00 0.112E-21 -.405E+00   -.322E-01 0.426E-04 0.285E+00
   -.275E+01 0.450E-05 0.192E+01   0.316E+01 -.201E-04 -.196E+01   -.323E+00 0.179E-21 0.405E+00   -.322E-01 0.426E-04 -.285E+00
   0.275E+01 0.762E-04 -.192E+01   -.316E+01 0.141E-04 0.196E+01   0.323E+00 -.164E-21 -.405E+00   0.322E-01 -.123E-04 0.285E+00
   -.217E+02 0.747E-05 -.541E+01   0.211E+02 -.179E-04 0.561E+01   0.715E+00 0.165E-21 -.946E-01   -.209E-01 0.407E-04 -.144E+00
   0.217E+02 0.792E-04 0.541E+01   -.211E+02 0.172E-04 -.561E+01   -.715E+00 0.776E-23 0.946E-01   0.209E-01 -.150E-04 0.144E+00
   0.217E+02 0.770E-04 -.541E+01   -.211E+02 0.172E-04 0.561E+01   -.715E+00 -.538E-22 -.946E-01   0.209E-01 -.149E-04 -.144E+00
   -.217E+02 0.528E-05 0.541E+01   0.211E+02 -.179E-04 -.561E+01   0.715E+00 -.272E-22 0.946E-01   -.209E-01 0.408E-04 0.144E+00
   0.100E+02 0.306E+02 -.167E+02   -.108E+02 -.318E+02 0.176E+02   0.488E+00 0.117E+01 -.901E+00   0.212E+00 -.431E-02 0.126E-01
   -.100E+02 -.306E+02 0.167E+02   0.108E+02 0.318E+02 -.176E+02   -.488E+00 -.117E+01 0.901E+00   -.212E+00 0.430E-02 -.127E-01
   -.100E+02 -.306E+02 -.167E+02   0.108E+02 0.318E+02 0.176E+02   -.488E+00 -.117E+01 -.901E+00   -.212E+00 0.431E-02 0.127E-01
   0.100E+02 0.306E+02 0.167E+02   -.108E+02 -.318E+02 -.176E+02   0.488E+00 0.117E+01 0.901E+00   0.212E+00 -.430E-02 -.127E-01
   -.100E+02 0.306E+02 0.167E+02   0.108E+02 -.318E+02 -.176E+02   -.488E+00 0.117E+01 0.901E+00   -.212E+00 -.430E-02 -.127E-01
   0.100E+02 -.306E+02 -.167E+02   -.108E+02 0.318E+02 0.176E+02   0.488E+00 -.117E+01 -.901E+00   0.212E+00 0.430E-02 0.126E-01
   0.100E+02 -.306E+02 0.167E+02   -.108E+02 0.318E+02 -.176E+02   0.488E+00 -.117E+01 0.901E+00   0.212E+00 0.429E-02 -.127E-01
   -.100E+02 0.306E+02 -.167E+02   0.108E+02 -.318E+02 0.176E+02   -.488E+00 0.117E+01 -.901E+00   -.212E+00 -.431E-02 0.127E-01
   0.437E+02 -.121E-04 0.742E+00   -.448E+02 -.786E-05 -.142E+01   0.106E+01 0.471E-22 0.729E+00   -.611E-01 0.742E-05 -.748E-01
   -.437E+02 -.762E-06 -.742E+00   0.448E+02 0.815E-05 0.142E+01   -.106E+01 0.451E-22 -.729E+00   0.611E-01 -.712E-05 0.748E-01
   -.437E+02 0.741E-05 0.742E+00   0.448E+02 0.815E-05 -.142E+01   -.106E+01 0.960E-23 0.729E+00   0.611E-01 -.710E-05 -.749E-01
   0.437E+02 -.391E-05 -.742E+00   -.448E+02 -.786E-05 0.142E+01   0.106E+01 -.164E-21 -.729E+00   -.611E-01 0.744E-05 0.748E-01
   0.771E+01 -.431E-05 0.349E+02   -.788E+01 0.875E-05 -.362E+02   -.311E-01 0.311E-22 0.155E+01   0.215E+00 -.731E-05 -.957E-01
   -.771E+01 -.151E-04 -.349E+02   0.788E+01 -.914E-05 0.362E+02   0.311E-01 -.514E-22 -.155E+01   -.215E+00 0.791E-05 0.957E-01
   -.771E+01 -.126E-05 0.349E+02   0.788E+01 -.914E-05 -.362E+02   0.311E-01 -.791E-22 0.155E+01   -.215E+00 0.789E-05 -.957E-01
   0.771E+01 0.949E-05 -.349E+02   -.788E+01 0.875E-05 0.362E+02   -.311E-01 0.148E-22 -.155E+01   0.215E+00 -.733E-05 0.957E-01
   -.273E-03 0.394E-03 0.607E-04   -.231E-13 -.441E-13 -.711E-14   0.000E+00 -.222E-15 0.222E-15   0.457E-05 0.107E-03 -.244E-05

 POSITION                                       TOTAL-FORCE (eV/Angst)
      0.13687      1.68172      7.96340        -0.051397      0.000000      0.083660
      8.77139      5.04515      3.54221         0.051397      0.000000     -0.083660
      4.31726      5.04515      2.21059         0.051397     -0.000000      0.083660
      4.59100      1.68172      9.29502        -0.051397     -0.000000     -0.083660
      1.43158      5.04515     10.42987         0.076558      0.000000     -0.035554
      7.47668      1.68172      1.07574        -0.076558     -0.000000      0.035554
      3.02255      1.68172      4.67706        -0.076558      0.000000     -0.035554
      5.88571      5.04515      6.82855         0.076558     -0.000000      0.035554
      1.72337      0.47763      1.68413        -0.082280     -0.014643     -0.042074
      7.18489      6.24923      9.82149         0.082280      0.014643      0.042074
      2.73076      6.24923      7.43693         0.082280      0.014643     -0.042074
      6.17750      0.47763      4.06868        -0.082280     -0.014643      0.042074
      7.18489      3.84106      9.82149         0.082280     -0.014643      0.042074
      1.72337      2.88580      1.68413        -0.082280      0.014643     -0.042074
      6.17750      2.88580      4.06868        -0.082280      0.014643      0.042074
      2.73076      3.84106      7.43693         0.082280     -0.014643     -0.042074
      0.72396      5.04515      6.79944        -0.075192     -0.000000     -0.022196
      8.18430      1.68172      4.70617         0.075192      0.000000      0.022196
      3.73017      1.68172      1.04664         0.075192     -0.000000     -0.022196
      5.17809      5.04515     10.45898        -0.075192      0.000000      0.022196
      1.74956      1.68172     11.10205         0.021612     -0.000000      0.079405
      7.15870      5.04515      0.40356        -0.021612      0.000000     -0.079405
      2.70457      5.04515      5.34924        -0.021612      0.000000      0.079405
      6.20369      1.68172      6.15637         0.021612      0.000000     -0.079405
    total drift:                               -0.000269      0.000501      0.000058

  FREE ENERGIE OF THE ION-ELECTRON SYSTEM (eV)
  free  energy   TOTEN  =       -98.62543196 eV

  energy  without entropy=      -98.62543196  energy(sigma->0) =      -98.62543196

 writing wavefunctions