 vasp.5.4.4.18Apr17-6-g9f103f2a35 (build Nov 21 2017 15:30:27) complex

 executed on             LinuxIFC date 2020.11.09  12:24:05

 INCAR:
 POTCAR:   PAW_PBE Ba_sv 06Sep2000
 POTCAR:   PAW_PBE Si 05Jan2001

 POTCAR:   PAW_PBE Ba_sv 06Sep2000
   VRHFIN =Ba: 5s5p6s

   TITEL  = PAW_PBE Ba_sv 06Sep2000
   POMASS =  137.327; ZVAL   =   10.000    mass and valenz
   ENMAX  =  187.210; ENMIN  =  140.408 eV
   QCUT   =   -3.709; QGAM   =    7.419    optimization parameters

   Description
     l     E      TYP  RCUT    TYP  RCUT
     0   .000     23  2.800
     0   .000     23  2.800
     1   .000     23  2.700
     1  2.000     23  2.700
     2   .000     23  2.700
     2   .000     23  2.700

 POTCAR:   PAW_PBE Si 05Jan2001
   VRHFIN =Si: s2p2

   TITEL  = PAW_PBE Si 05Jan2001
   POMASS =   28.085; ZVAL   =    4.000    mass and valenz
   ENMAX  =  245.345; ENMIN  =  184.009 eV
   QCUT   =   -4.246; QGAM   =    8.493    optimization parameters

   Description
     l     E      TYP  RCUT    TYP  RCUT
     0   .000     23  1.900
     0   .000     23  1.900
     1   .000     23  1.900
     1   .000     23  1.900
     2   .000      7  1.900

 Optimization of the real space projectors (new method)

 maximal supplied QI-value         = 13.42
 optimisation between [QCUT,QGAM] = [ 11.40, 22.81] = [ 36.42,145.68] Ry
 Optimized for a Real-space Cutoff    1.56 Angstroem

   l    n(q)    QCUT    max X(q) W(low)/X(q) W(high)/X(q)  e(spline)
   0     11    11.404     7.198    0.14E-04    0.26E-04    0.99E-07
   0     11    11.404    15.603    0.29E-04    0.72E-04    0.44E-06
   1     10    11.404     3.746    0.20E-04    0.24E-04    0.43E-07
   1     10    11.404     4.362    0.22E-03    0.97E-04    0.22E-06
   2     10    11.404     5.782    0.83E-04    0.62E-05    0.27E-06
   2     10    11.404    65.505    0.42E-03    0.31E-04    0.12E-05
 Optimization of the real space projectors (new method)

 maximal supplied QI-value         = 19.84
 optimisation between [QCUT,QGAM] = [ 11.31, 22.82] = [ 35.82,145.81] Ry
 Optimized for a Real-space Cutoff    1.16 Angstroem

   l    n(q)    QCUT    max X(q) W(low)/X(q) W(high)/X(q)  e(spline)
   0      8    11.310     8.708    0.14E-04    0.11E-04    0.43E-08
   0      8    11.310   106.241    0.27E-03    0.30E-03    0.38E-07
   1      7    11.310     5.901    0.82E-05    0.48E-04    0.19E-07
   1      7    11.310    73.241    0.27E-03    0.27E-03    0.74E-07

 PAW_PBE Ba_sv 06Sep2000                :
 PAW_PBE Si 05Jan2001                   :

 POSCAR: ba8 si16
  positions in direct lattice
  velocities in cartesian coordinates
 exchange correlation table for  LEXCH =       43
   RHO(1)=    0.500       N(1)  =     2000
   RHO(2)=  100.500       N(2)  =     4000

 ion  position               nearest neighbor table
   1  0.010  0.269  0.715-  21 3.23  16 3.33  11 3.33  17 3.43  17 3.43   5 4.46   5 4.46   7 4.49
                             4 4.66
   2  0.365  0.767  0.316-  22 3.23  15 3.33  12 3.33  18 3.43  18 3.43   6 4.46   6 4.46   8 4.49
                             3 4.66
   3  0.177  0.768  0.209-  20 3.33  12 3.41  15 3.42  14 3.46   9 3.46  23 3.54  19 3.58  19 3.58
                            22 3.69   5 3.82   7 4.13   7 4.13   6 4.40   6 4.40   2 4.66
   4  0.198  0.268  0.822-  19 3.33  11 3.41  16 3.42  13 3.46  10 3.46  24 3.54  20 3.58  20 3.58
                            21 3.69   6 3.82   8 4.13   8 4.13   5 4.40   5 4.40   1 4.66
   5  0.086  0.769  0.930-  21 3.36  21 3.36  16 3.37  11 3.38  20 3.40   9 3.40  14 3.41  17 3.65
                             3 3.82   4 4.40   4 4.40   1 4.46   1 4.46
   6  0.289  0.268  0.101-  22 3.36  22 3.36  15 3.37  12 3.38  19 3.40  10 3.40  13 3.41  18 3.65
                             4 3.82   3 4.40   3 4.40   2 4.46   2 4.46
   7  0.130  0.268  0.410-  15 3.35  12 3.35  14 3.40   9 3.40  23 3.44  23 3.44  11 3.48  16 3.49
                            19 3.54  24 3.91   3 4.13   3 4.13   1 4.49
   8  0.245  0.768  0.622-  16 3.35  11 3.35  13 3.40  10 3.40  24 3.44  24 3.44  12 3.48  15 3.49
                            20 3.54  23 3.91   4 4.13   4 4.13   2 4.49
   9  0.064  0.085  0.166-  14 2.40  21 2.41  19 2.47   7 3.40   5 3.40   3 3.46
  10  0.312  0.952  0.866-  13 2.40  22 2.41  20 2.47   8 3.40   6 3.40   4 3.46
  11  0.115  0.952  0.657-  16 2.40  23 2.43  17 2.43   1 3.33   8 3.35   5 3.38   4 3.41   7 3.48

  12  0.260  0.084  0.375-  15 2.40  24 2.43  18 2.43   2 3.33   7 3.35   6 3.38   3 3.41   8 3.48

[...]

  21  0.063  0.269  0.980-  14 2.41   9 2.41  19 2.42   1 3.23   5 3.36   5 3.36   4 3.69
  22  0.312  0.768  0.052-  13 2.41  10 2.41  20 2.42   2 3.23   6 3.36   6 3.36   3 3.69
  23  0.097  0.768  0.474-  16 2.43  17 2.43  11 2.43   7 3.44   7 3.44   3 3.54   8 3.91
  24  0.278  0.268  0.558-  15 2.43  18 2.43  12 2.43   8 3.44   8 3.44   4 3.54   7 3.91

  LATTYP: Found a simple orthorhombic cell.
 ALAT       =     6.5403619403
 B/A-ratio  =     1.7198445489
 C/A-ratio  =     3.6709693283

  Lattice vectors:

 A1 = (   0.0000000000,   6.5403619403,   0.0000000000)
 A2 = (   0.0000000000,   0.0000000000, -11.2484058311)
 A3 = ( -24.0094680786,   0.0000000000,   0.0000000000)

Analysis of symmetry for initial positions (statically):
 Subroutine PRICEL returns:
 Original cell was already a primitive cell.

 Routine SETGRP: Setting up the symmetry group for a
 simple orthorhombic supercell.

 Subroutine GETGRP returns: Found  2 space group operations
 (whereof  1 operations were pure point group operations)
 out of a pool of  8 trial point group operations.

The static configuration has the point symmetry C_1 .
 The point group associated with its full space group is S_2 .

Analysis of symmetry for dynamics (positions and initial velocities):
 Subroutine PRICEL returns:
 Original cell was already a primitive cell.

 Routine SETGRP: Setting up the symmetry group for a
 simple orthorhombic supercell.

 Subroutine GETGRP returns: Found  2 space group operations
 (whereof  1 operations were pure point group operations)
 out of a pool of  8 trial point group operations.

The dynamic configuration has the point symmetry C_1 .
 The point group associated with its full space group is S_2 .

 Subroutine INISYM returns: Found  2 space group operations
 (whereof  1 operations are pure point group operations),
 and found     1 'primitive' translations

 KPOINTS: k-density: 8.0

Automatic generation of k-mesh.
Space group operators:
 irot       det(A)        alpha          n_x          n_y          n_z        tau_x        tau_y        tau_z
    1     1.000000     0.000000     1.000000     0.000000     0.000000     0.000000     0.000000     0.000000
    2    -1.000000     0.000000     1.000000     0.000000     0.000000    -0.624754     0.036311    -0.968552

 Subroutine IBZKPT returns following result:

 Found     21 irreducible k-points:

 Following reciprocal coordinates:
            Coordinates               Weight
  0.000000  0.000000  0.000000      1.000000
  0.000000  0.125000  0.000000      2.000000
  0.000000  0.250000  0.000000      2.000000
  0.000000  0.375000  0.000000      2.000000
  0.000000  0.500000  0.000000      1.000000
  0.000000  0.000000  0.200000      2.000000
  0.000000  0.125000  0.200000      2.000000
  0.000000  0.250000  0.200000      2.000000
  0.000000  0.375000  0.200000      2.000000
  0.000000  0.500000  0.200000      2.000000
  0.000000 -0.375000  0.200000      2.000000
  0.000000 -0.250000  0.200000      2.000000
  0.000000 -0.125000  0.200000      2.000000
  0.000000  0.000000  0.400000      2.000000
  0.000000  0.125000  0.400000      2.000000
  0.000000  0.250000  0.400000      2.000000
  0.000000  0.375000  0.400000      2.000000
  0.000000  0.500000  0.400000      2.000000
  0.000000 -0.375000  0.400000      2.000000
  0.000000 -0.250000  0.400000      2.000000
  0.000000 -0.125000  0.400000      2.000000

 Following cartesian coordinates:
            Coordinates               Weight
  0.000000  0.000000  0.000000      1.000000
  0.000000  0.019112  0.000000      2.000000
  0.000000  0.038224  0.000000      2.000000
  0.000000  0.057336  0.000000      2.000000
  0.000000  0.076448  0.000000      1.000000
  0.000000  0.000000  0.017780      2.000000
  0.000000  0.019112  0.017780      2.000000
  0.000000  0.038224  0.017780      2.000000
  0.000000  0.057336  0.017780      2.000000
  0.000000  0.076448  0.017780      2.000000
  0.000000 -0.057336  0.017780      2.000000
  0.000000 -0.038224  0.017780      2.000000
  0.000000 -0.019112  0.017780      2.000000
  0.000000  0.000000  0.035561      2.000000
  0.000000  0.019112  0.035561      2.000000
  0.000000  0.038224  0.035561      2.000000
  0.000000  0.057336  0.035561      2.000000
  0.000000  0.076448  0.035561      2.000000
  0.000000 -0.057336  0.035561      2.000000
  0.000000 -0.038224  0.035561      2.000000
  0.000000 -0.019112  0.035561      2.000000

 TETIRR: Found    118 inequivalent tetrahedra from      240

 SYSTEM =  unknown system
 POSCAR =  ba8 si16

 Startparameter for this run:
   NWRITE =      2    write-flag & timer
   PREC   = normal    normal or accurate (medium, high low for compatibility)
   ISTART =      0    job   : 0-new  1-cont  2-samecut
   ICHARG =     11    charge: 1-file 2-atom 10-const
   ISPIN  =      1    spin polarized calculation?
   LNONCOLLINEAR =      F non collinear calculations
   LSORBIT =      F    spin-orbit coupling
   INIWAV =      1    electr: 0-lowe 1-rand  2-diag
   LASPH  =      T    aspherical Exc in radial PAW
   METAGGA=      F    non-selfconsistent MetaGGA calc.

 Electronic Relaxation 1
   ENCUT  =  500.0 eV  36.75 Ry    6.06 a.u.  43.77 11.92 20.51*2*pi/ulx,y,z
   ENINI  =  500.0     initial cutoff
   ENAUG  =  351.2 eV  augmentation charge cutoff
   NELM   =    100;   NELMIN=  2; NELMDL= -5     # of ELM steps
   EDIFF  = 0.1E-05   stopping-criterion for ELM
   LREAL  =      T    real-space projection
   NLSPLINE    = F    spline interpolate recip. space projectors
   LCOMPAT=      F    compatible to vasp.4.4
   GGA_COMPAT  = T    GGA compatible to vasp.4.4-vasp.4.6
   LMAXPAW     = -100 max onsite density
   LMAXMIX     =    2 max onsite mixed and CHGCAR
   VOSKOWN=      0    Vosko Wilk Nusair interpolation
   ROPT   =   -0.00050  -0.00050
 Ionic relaxation
   EDIFFG = -.1E-01   stopping-criterion for IOM
   NSW    =      0    number of steps for IOM
   NBLOCK =      1;   KBLOCK =      1    inner block; outer block
   IBRION =     -1    ionic relax: 0-MD 1-quasi-New 2-CG
   NFREE  =      0    steps in history (QN), initial steepest desc. (CG)
   ISIF   =      2    stress and relaxation
   IWAVPR =     10    prediction:  0-non 1-charg 2-wave 3-comb
   ISYM   =      2    0-nonsym 1-usesym 2-fastsym
   LCORR  =      T    Harris-Foulkes like correction to forces

   POTIM  = 0.3000    time-step for ionic-motion
   TEIN   =    0.0    initial temperature
   TEBEG  =    0.0;   TEEND  =   0.0 temperature during run
   SMASS  =  -3.00    Nose mass-parameter (am)
   estimated Nose-frequenzy (Omega)   =  0.10E-29 period in steps =****** mass=  -0.132E-25a.u.
   SCALEE = 1.0000    scale energy and forces
[...]

[...]

 eigenvalue-minimisations  :  4000
 total energy-change (2. order) :-0.5336915E-06  (-0.5336777E-06)
 number of electron     144.0000006 magnetization
 augmentation part      144.0000006 magnetization

 Free energy of the ion-electron system (eV)
  alpha Z        PSCENC =       182.20216268
  Ewald energy   TEWEN  =     14168.75486563
  -Hartree energ DENC   =    -20599.18573235
  -exchange      EXHF   =         0.00000000
  -V(xc)+E(xc)   XCENC  =        47.86297257
  PAW double counting   =      3870.05451552    -3575.52578058
  entropy T*S    EENTRO =         0.00000000
  eigenvalues    EBANDS =     -1454.61659070
  atomic energy  EATOM  =      7269.15145414
  Solvation  Ediel_sol  =         0.00000000
  free energy    TOTEN  =       -91.30213309 eV

  energy without entropy =      -91.30213309  energy(sigma->0) =      -91.30213309

 average (electrostatic) potential at core
  the test charge radii are     1.2192  0.9892
  (the norm of the test charge is              1.0000)
       1 -41.4232       2 -41.4234       3 -40.2630       4 -40.2629       5 -40.3147
       6 -40.3147       7 -40.3606       8 -40.3606       9 -89.1108      10 -89.1107
      11 -89.4090      12 -89.4091      13 -89.1109      14 -89.1110      15 -89.4098
      16 -89.4097      17 -89.5522      18 -89.5525      19 -89.0641      20 -89.0641
      21 -89.1137      22 -89.1138      23 -89.4807      24 -89.4807

 E-fermi :  -0.8275     XC(G=0):  -4.3109     alpha+bet : -4.1101

 k-point     1 :       0.0000    0.0000    0.0000
  band No.  band energies     occupation
      1     -29.2833      2.00000
      2     -29.2831      2.00000
      3     -28.2645      2.00000
      4     -28.2573      2.00000
      5     -28.2288      2.00000
      6     -28.2189      2.00000
      7     -28.1601      2.00000
      8     -28.1494      2.00000
      9     -14.6636      2.00000
     10     -14.6618      2.00000
     11     -14.5836      2.00000
     12     -14.5825      2.00000
     13     -14.5065      2.00000
     14     -14.5060      2.00000
     15     -13.9553      2.00000
     16     -13.8542      2.00000
     17     -13.7916      2.00000
     18     -13.7703      2.00000
     19     -13.7115      2.00000
     20     -13.6883      2.00000
     21     -13.6717      2.00000
     22     -13.6155      2.00000
     23     -13.6003      2.00000
     24     -13.5751      2.00000
     25     -13.5596      2.00000
     26     -13.5456      2.00000
     27     -13.4377      2.00000
     28     -13.4165      2.00000
     29     -13.3876      2.00000
     30     -13.3780      2.00000
     31     -13.3482      2.00000
     32     -13.3478      2.00000
     33     -11.3917      2.00000
     34     -11.2809      2.00000
     35     -10.9145      2.00000
     36     -10.8930      2.00000
     37      -6.6743      2.00000
     38      -6.6440      2.00000
     39      -6.4992      2.00000
     40      -6.4590      2.00000
     41      -6.4400      2.00000
     42      -6.4381      2.00000
     43      -6.2250      2.00000
     44      -6.1744      2.00000
     45      -6.1500      2.00000
     46      -6.0714      2.00000
     47      -5.8350      2.00000
     48      -5.8145      2.00000
     49      -3.8216      2.00000
     50      -3.3972      2.00000
     51      -2.9150      2.00000
     52      -2.9010      2.00000
     53      -2.6501      2.00000
     54      -2.4552      2.00000
     55      -2.3019      2.00000
     56      -2.2811      2.00000
     57      -2.1397      2.00000
     58      -2.0830      2.00000
     59      -1.9722      2.00000
     60      -1.9671      2.00000
[...]
     74       0.5029      0.00000
     75       0.5136      0.00000
     76       0.5261      0.00000
     77       0.5566      0.00000
     78       0.6715      0.00000
     79       0.8390      0.00000
     80       0.9367      0.00000
     81       1.0581      0.00000
     82       1.2043      0.00000
     83       1.2507      0.00000
     84       1.3555      0.00000
     85       1.4033      0.00000
     86       1.5576      0.00000
     87       1.5688      0.00000
     88       1.6812      0.00000

[...]

 k-point    21 :       0.0000   -0.1250    0.4000
  band No.  band energies     occupation
      1     -29.2833      2.00000
      2     -29.2831      2.00000
      3     -28.2625      2.00000
      4     -28.2580      2.00000
      5     -28.2287      2.00000
      6     -28.2192      2.00000
      7     -28.1597      2.00000
      8     -28.1507      2.00000
      9     -14.6633      2.00000
     10     -14.6596      2.00000
     11     -14.5840      2.00000
     12     -14.5834      2.00000
     13     -14.5119      2.00000
     14     -14.5116      2.00000
     15     -13.9417      2.00000
     16     -13.8606      2.00000
     17     -13.8059      2.00000
     18     -13.7697      2.00000
     19     -13.7202      2.00000
     20     -13.6991      2.00000
     21     -13.6651      2.00000
     22     -13.6436      2.00000
     23     -13.5861      2.00000
     24     -13.5666      2.00000
     25     -13.5596      2.00000
     26     -13.5561      2.00000
     27     -13.4387      2.00000
     28     -13.4035      2.00000
     29     -13.3849      2.00000
     30     -13.3778      2.00000
     31     -13.3526      2.00000
     32     -13.3471      2.00000
     33     -11.3333      2.00000
     34     -11.2781      2.00000
     35     -10.9233      2.00000
     36     -10.8892      2.00000
     37      -6.6620      2.00000
     38      -6.5948      2.00000
     39      -6.5320      2.00000
     40      -6.4979      2.00000
     41      -6.4361      2.00000
     42      -6.4326      2.00000
     43      -6.2346      2.00000
     44      -6.2043      2.00000
     45      -6.1600      2.00000
     46      -5.9924      2.00000
     47      -5.8709      2.00000
     48      -5.8573      2.00000
     49      -3.4636      2.00000
     50      -3.2065      2.00000
     51      -2.9091      2.00000
     52      -2.7815      2.00000
     53      -2.7020      2.00000
     54      -2.4934      2.00000
     55      -2.2941      2.00000
     56      -2.2275      2.00000
     57      -2.1796      2.00000
     58      -2.1254      2.00000
     59      -2.1178      2.00000
     60      -2.0503      2.00000
[...]
     74       0.4507      0.00000
     75       0.5740      0.00000
     76       0.6478      0.00000
     77       0.7188      0.00000
     78       0.7349      0.00000
     79       0.8093      0.00000
     80       0.9772      0.00000
     81       1.0299      0.00000
     82       1.1469      0.00000
     83       1.1687      0.00000
     84       1.2987      0.00000
     85       1.4825      0.00000
     86       1.5012      0.00000
     87       1.6824      0.00000
     88       1.7643      0.00000

 soft charge-density along one line, spin component           1
         0         1         2         3         4         5         6         7         8         9
 total charge-density along one line

------------------------ aborting loop because EDIFF is reached ----------------------------------------

 total charge

# of ion       s       p       d       tot
    1        2.019   5.567   0.318   7.905
    2        2.019   5.567   0.318   7.905
    3        2.020   5.582   0.328   7.930
    4        2.020   5.582   0.328   7.930
    5        2.016   5.577   0.347   7.940
    6        2.016   5.577   0.347   7.940
    7        2.014   5.577   0.344   7.935
    8        2.014   5.577   0.344   7.935
    9        0.832   0.803   0.000   1.635
   10        0.832   0.803   0.000   1.635
   11        0.799   0.874   0.000   1.672
   12        0.799   0.874   0.000   1.672
   13        0.832   0.803   0.000   1.635
   14        0.832   0.803   0.000   1.635
   15        0.799   0.874   0.000   1.672
   16        0.799   0.874   0.000   1.672
   17        0.816   0.816   0.000   1.632
   18        0.816   0.816   0.000   1.632
   19        0.792   0.855   0.000   1.648
   20        0.792   0.855   0.000   1.648
   21        0.790   0.875   0.000   1.664
   22        0.790   0.875   0.000   1.664
   23        0.825   0.807   0.000   1.631
   24        0.825   0.807   0.000   1.631
tot         29.107  58.018   2.673  89.798

  FORCE on cell =-STRESS in cart. coord.  units (eV):
  Direction    XX          YY          ZZ          XY          YZ          ZX
  Alpha Z   182.20216   182.20216   182.20216
  Ewald  -22349.57712 18464.17551 18054.14140     0.44121     0.11044   128.44059
  Hartree-19081.23941 19998.58288 19681.71242     0.19729     0.00871    91.84641
  E(xc)    -464.31855  -465.82094  -465.91108     0.00054     0.00058     0.01806
  Local   39998.77212-39910.86127-39177.10468    -0.62966    -0.12931  -216.67238
  n-local   335.92647   339.16393   341.17940    -0.01322     0.01597    -1.22229
  augment  -167.74293  -168.58653  -168.62579    -0.00104    -0.00060     0.29536
  Kinetic  1545.85743  1561.04413  1552.41067     0.06648     0.00160    -2.58569
  Fock        0.00000     0.00000     0.00000     0.00000     0.00000     0.00000
  Total      -0.11982    -0.10011     0.00450     0.06161     0.00740     0.12006
  in kB      -0.10869    -0.09080     0.00408     0.05588     0.00671     0.10891

 VOLUME and BASIS-vectors are now :
  energy-cutoff  :      500.00
  volume of cell :     1766.34
      direct lattice vectors                 reciprocal lattice vectors
    24.009468079  0.000000000  0.000000000     0.041650236  0.000000000  0.000000000
     0.000000000  6.540361940  0.000000000     0.000000000  0.152896737  0.000000000
     0.000000000  0.000000000 11.248405831     0.000000000  0.000000000  0.088901487

  length of vectors
    24.009468079  6.540361940 11.248405831     0.041650236  0.152896737  0.088901487

 FORCES acting on ions
    electron-ion (+dipol)            ewald-force                    non-local-force                 convergence-correction
   0.864E+03 0.110E-01 0.331E+02   -.860E+03 -.807E-02 -.319E+02   -.396E+01 -.275E-02 -.120E+01   0.950E-02 -.686E-03 0.105E-02
   -.864E+03 -.110E-01 -.331E+02   0.860E+03 0.807E-02 0.319E+02   0.396E+01 0.275E-02 0.120E+01   -.628E-02 0.496E-03 -.207E-02
   0.856E+02 -.110E-01 -.336E+02   -.855E+02 0.701E-02 0.331E+02   -.613E-01 0.353E-02 0.592E+00   0.549E-02 -.164E-02 -.230E-02
   -.856E+02 0.110E-01 0.336E+02   0.855E+02 -.702E-02 -.331E+02   0.613E-01 -.353E-02 -.592E+00   -.238E-02 0.121E-04 0.886E-03
   0.587E+03 0.433E-01 -.303E+02   -.586E+03 -.454E-01 0.302E+02   -.723E+00 0.140E-02 0.745E-01   0.492E-02 -.127E-02 -.289E-03
   -.587E+03 -.433E-01 0.303E+02   0.586E+03 0.454E-01 -.302E+02   0.723E+00 -.140E-02 -.745E-01   -.909E-02 0.167E-02 0.215E-02
   0.377E+03 -.180E-01 -.971E+01   -.376E+03 0.115E-01 0.926E+01   -.817E+00 0.471E-02 0.450E+00   0.112E-02 0.801E-03 0.241E-02
   -.377E+03 0.180E-01 0.971E+01   0.376E+03 -.115E-01 -.926E+01   0.817E+00 -.471E-02 -.450E+00   -.500E-02 -.513E-03 0.894E-03
   0.320E+03 0.363E+02 -.433E+02   -.320E+03 -.379E+02 0.441E+02   -.320E+00 0.152E+01 -.875E+00   0.162E-02 0.762E-03 -.598E-03
   -.320E+03 -.363E+02 0.433E+02   0.320E+03 0.379E+02 -.441E+02   0.320E+00 -.152E+01 0.875E+00   -.186E-02 -.849E-03 0.404E-03
   0.142E+03 -.309E+02 0.633E+01   -.141E+03 0.321E+02 -.561E+01   -.754E+00 -.110E+01 -.728E+00   0.148E-02 0.210E-03 0.387E-03
   -.142E+03 0.309E+02 -.633E+01   0.141E+03 -.321E+02 0.561E+01   0.754E+00 0.110E+01 0.728E+00   -.177E-02 0.114E-03 -.542E-03
   -.320E+03 0.364E+02 0.432E+02   0.320E+03 -.379E+02 -.441E+02   0.327E+00 0.151E+01 0.882E+00   -.221E-02 0.676E-03 0.664E-03
   0.320E+03 -.364E+02 -.432E+02   -.320E+03 0.379E+02 0.441E+02   -.327E+00 -.151E+01 -.882E+00   0.211E-02 -.513E-03 -.813E-03
   -.142E+03 -.310E+02 -.625E+01   0.141E+03 0.321E+02 0.552E+01   0.760E+00 -.110E+01 0.731E+00   -.182E-02 0.560E-04 -.733E-03
   0.142E+03 0.310E+02 0.625E+01   -.141E+03 -.321E+02 -.552E+01   -.760E+00 0.110E+01 -.731E+00   0.185E-02 -.279E-03 0.286E-03
   0.368E+03 -.396E-02 0.302E+02   -.369E+03 0.597E-02 -.298E+02   0.167E+01 -.344E-02 -.435E+00   0.236E-02 0.169E-03 0.327E-03
   -.368E+03 0.395E-02 -.302E+02   0.369E+03 -.597E-02 0.298E+02   -.167E+01 0.344E-02 0.435E+00   -.253E-02 0.309E-04 -.555E-03
   0.687E+02 0.317E-01 -.739E+01   -.666E+02 -.278E-01 0.721E+01   -.215E+01 -.967E-02 0.181E+00   0.110E-02 0.612E-03 -.566E-03
   -.687E+02 -.317E-01 0.739E+01   0.666E+02 0.278E-01 -.721E+01   0.215E+01 0.967E-02 -.181E+00   -.600E-03 -.467E-03 0.616E-03
   0.296E+03 -.360E-01 0.717E+01   -.297E+03 0.369E-01 -.870E+01   0.370E+00 -.261E-02 0.153E+01   0.206E-02 0.288E-03 -.208E-03
   -.296E+03 0.359E-01 -.717E+01   0.297E+03 -.369E-01 0.870E+01   -.370E+00 0.261E-02 -.153E+01   -.261E-02 -.325E-03 -.140E-04
   0.221E+03 0.475E-01 0.592E+02   -.221E+03 -.516E-01 -.613E+02   -.715E+00 0.558E-02 0.209E+01   0.198E-02 -.107E-03 0.777E-03
   -.221E+03 -.475E-01 -.592E+02   0.221E+03 0.516E-01 0.613E+02   0.715E+00 -.558E-02 -.209E+01   -.258E-02 0.650E-04 -.253E-03
   0.130E-03 0.951E-04 0.833E-04   0.853E-13 0.173E-13 -.711E-14   0.000E+00 0.000E+00 0.000E+00   -.314E-02 -.685E-03 0.191E-02

 POSITION                                       TOTAL-FORCE (eV/Angst)
      0.24668      1.75847      8.04631        -0.000468     -0.000441     -0.007919
      8.76278      5.01938      3.55583         0.000468      0.000441      0.007919
      4.25602      5.02493      2.35470        -0.000510     -0.001263     -0.003459
      4.75345      1.75292      9.24744         0.000510      0.001263      0.003459
      2.07622      5.02752     10.46608        -0.001422     -0.002216     -0.002318
      6.93325      1.75033      1.13606         0.001422      0.002216      0.002318
      3.13155      1.75546      4.60789         0.001379     -0.001153      0.003129
      5.87792      5.02239      6.99425        -0.001379      0.001153     -0.003129
      1.52662      0.55457      1.86569         0.000306      0.001068     -0.003678
      7.48285      6.22328      9.73645        -0.000306     -0.001068      0.003678
      2.77266      6.22674      7.38899         0.002853      0.004989     -0.001706
      6.23681      0.55111      4.21315        -0.002853     -0.004989      0.001706
      7.48126      3.82064      9.73506        -0.001674      0.000269      0.001996
      1.52821      2.95720      1.86708         0.001674     -0.000269     -0.001996
      6.23579      2.94767      4.21022        -0.002630      0.000795     -0.001191
      2.77368      3.83018      7.39192         0.002630     -0.000795      0.001191
      0.67598      5.02852      7.09321        -0.002887     -0.001359     -0.000992
      8.33348      1.74933      4.50893         0.002887      0.001359      0.000992
      3.53847      1.75629      1.09498        -0.000633     -0.005248     -0.003371
      5.47100      5.02156     10.50716         0.000633      0.005248      0.003371
      1.51773      1.75741     11.02077         0.000847     -0.001322     -0.001410
      7.49174      5.02044      0.58137        -0.000847      0.001322      0.001410
      2.33842      5.02508      5.32627        -0.000919      0.001357     -0.005852
      6.67104      1.75277      6.27587         0.000919     -0.001357      0.005852
    total drift:                               -0.003014     -0.000590      0.001991

  FREE ENERGIE OF THE ION-ELECTRON SYSTEM (eV)
  free  energy   TOTEN  =       -91.30213309 eV

  energy  without entropy=      -91.30213309  energy(sigma->0) =      -91.30213309

 writing wavefunctions

 total charge

# of ion       s       p       d       tot
    1        2.019   5.567   0.318   7.905
    2        2.019   5.567   0.318   7.905
    3        2.020   5.582   0.328   7.930
    4        2.020   5.582   0.328   7.930
    5        2.016   5.577   0.347   7.940
    6        2.016   5.577   0.347   7.940
    7        2.014   5.577   0.344   7.935
    8        2.014   5.577   0.344   7.935
    9        0.832   0.803   0.000   1.635
   10        0.832   0.803   0.000   1.635
   11        0.799   0.874   0.000   1.672
   12        0.799   0.874   0.000   1.672
   13        0.832   0.803   0.000   1.635
   14        0.832   0.803   0.000   1.635
   15        0.799   0.874   0.000   1.672
   16        0.799   0.874   0.000   1.672
   17        0.816   0.816   0.000   1.632
   18        0.816   0.816   0.000   1.632
   19        0.792   0.855   0.000   1.648
   20        0.792   0.855   0.000   1.648
   21        0.790   0.875   0.000   1.664
   22        0.790   0.875   0.000   1.664
   23        0.825   0.807   0.000   1.631
   24        0.825   0.807   0.000   1.631
tot         29.107  58.018   2.673  89.798

 BZINTS: Fermi energy: -0.827500;144.000000 electrons
         Band energy:***********;  BLOECHL correction:  0.000000