 vasp.5.4.4.18Apr17-6-g9f103f2a35 (build Nov 21 2017 15:30:27) complex

 executed on             LinuxIFC date 2020.11.09  12:04:21

 INCAR:
 POTCAR:   PAW_PBE Ba_sv 06Sep2000
 POTCAR:   PAW_PBE Si 05Jan2001

 POTCAR:   PAW_PBE Ba_sv 06Sep2000
   VRHFIN =Ba: 5s5p6s

   TITEL  = PAW_PBE Ba_sv 06Sep2000
   POMASS =  137.327; ZVAL   =   10.000    mass and valenz
   ENMAX  =  187.210; ENMIN  =  140.408 eV
   QCUT   =   -3.709; QGAM   =    7.419    optimization parameters

   Description
     l     E      TYP  RCUT    TYP  RCUT
     0   .000     23  2.800
     0   .000     23  2.800
     1   .000     23  2.700
     1  2.000     23  2.700
     2   .000     23  2.700
     2   .000     23  2.700

 POTCAR:   PAW_PBE Si 05Jan2001
   VRHFIN =Si: s2p2

   TITEL  = PAW_PBE Si 05Jan2001
   POMASS =   28.085; ZVAL   =    4.000    mass and valenz
   ENMAX  =  245.345; ENMIN  =  184.009 eV
   QCUT   =   -4.246; QGAM   =    8.493    optimization parameters

   Description
     l     E      TYP  RCUT    TYP  RCUT
     0   .000     23  1.900
     0   .000     23  1.900
     1   .000     23  1.900
     1   .000     23  1.900
     2   .000      7  1.900

 Optimization of the real space projectors (new method)

 maximal supplied QI-value         = 13.42
 optimisation between [QCUT,QGAM] = [ 11.40, 22.81] = [ 36.42,145.68] Ry
 Optimized for a Real-space Cutoff    1.56 Angstroem

   l    n(q)    QCUT    max X(q) W(low)/X(q) W(high)/X(q)  e(spline)
   0     11    11.404     7.198    0.14E-04    0.26E-04    0.99E-07
   0     11    11.404    15.603    0.29E-04    0.72E-04    0.44E-06
   1     10    11.404     3.746    0.20E-04    0.24E-04    0.43E-07
   1     10    11.404     4.362    0.22E-03    0.97E-04    0.22E-06
   2     10    11.404     5.782    0.83E-04    0.62E-05    0.27E-06
   2     10    11.404    65.505    0.42E-03    0.31E-04    0.12E-05
 Optimization of the real space projectors (new method)

 maximal supplied QI-value         = 19.84
 optimisation between [QCUT,QGAM] = [ 11.31, 22.82] = [ 35.82,145.81] Ry
 Optimized for a Real-space Cutoff    1.16 Angstroem

   l    n(q)    QCUT    max X(q) W(low)/X(q) W(high)/X(q)  e(spline)
   0      8    11.310     8.708    0.14E-04    0.11E-04    0.43E-08
   0      8    11.310   106.241    0.27E-03    0.30E-03    0.38E-07
   1      7    11.310     5.901    0.82E-05    0.48E-04    0.19E-07
   1      7    11.310    73.241    0.27E-03    0.27E-03    0.74E-07

 PAW_PBE Ba_sv 06Sep2000                :
 PAW_PBE Si 05Jan2001                   :

 POSCAR: ba8 si16
  positions in direct lattice
  velocities in cartesian coordinates
 exchange correlation table for  LEXCH =       43
   RHO(1)=    0.500       N(1)  =     2000
   RHO(2)=  100.500       N(2)  =     4000

 ion  position               nearest neighbor table
   1  0.009  0.250  0.698-  41 3.27  24 3.33  19 3.33  33 3.47  33 3.47   9 4.42   9 4.42  11 4.45
                             4 4.52
   2  0.536  0.750  0.302-  42 3.27  28 3.33  31 3.33  34 3.47  34 3.47  10 4.42  10 4.42  16 4.45
                             7 4.52
   3  0.129  0.750  0.191-  36 3.41  20 3.41  23 3.41  17 3.42  22 3.42  46 3.48  35 3.60  35 3.60
                            43 3.60   9 3.93  11 4.21  11 4.21
   4  0.141  0.250  0.808-  35 3.27  24 3.41  19 3.41  29 3.44  26 3.44  44 3.48  41 3.50  36 3.57
                            36 3.57  14 4.30  12 4.31  12 4.31   9 4.44   9 4.44   1 4.52   5 4.69
   5  0.278  0.250  0.690-  38 3.35  29 3.36  26 3.36  44 3.39  32 3.41  27 3.41  45 3.48  37 3.56
                            37 3.56  13 4.35  13 4.35  15 4.35   4 4.69  12 4.73  12 4.73
   6  0.268  0.750  0.310-  37 3.35  25 3.36  30 3.36  47 3.39  20 3.41  23 3.41  46 3.48  38 3.56
                            38 3.56  14 4.35  14 4.35  12 4.35   7 4.69  15 4.73  15 4.73
   7  0.404  0.750  0.192-  40 3.27  28 3.41  31 3.41  25 3.44  30 3.44  47 3.48  42 3.50  39 3.57
                            39 3.57  13 4.30  15 4.31  15 4.31  10 4.44  10 4.44   2 4.52   6 4.69
   8  0.417  0.250  0.809-  39 3.41  32 3.41  27 3.41  21 3.42  18 3.42  45 3.48  40 3.60  40 3.60
                            48 3.60  10 3.93  16 4.21  16 4.21
   9  0.059  0.750  0.911-  36 3.37  41 3.39  41 3.39  19 3.41  24 3.41  17 3.43  22 3.43  33 3.59
                             3 3.93   1 4.42   1 4.42   4 4.44   4 4.44
  10  0.487  0.250  0.089-  39 3.37  42 3.39  42 3.39  31 3.41  28 3.41  21 3.43  18 3.43  34 3.59
                             8 3.93   2 4.42   2 4.42   7 4.44   7 4.44
  11  0.094  0.250  0.394-  23 3.35  20 3.35  22 3.42  17 3.42  43 3.49  43 3.49  44 3.52  24 3.53
                            19 3.53  35 3.60   3 4.21   3 4.21   1 4.45
  12  0.180  0.750  0.596-  44 3.40  44 3.40  19 3.41  24 3.41  26 3.46  29 3.46  20 3.49  23 3.49
                            36 3.61  37 3.83  43 3.92   4 4.31   4 4.31   6 4.35   5 4.73   5 4.73
  13  0.318  0.750  0.907-  45 3.39  45 3.39  26 3.43  29 3.43  27 3.45  32 3.45  25 3.45  30 3.45
                            46 3.56  37 3.65  40 3.84   7 4.30   5 4.35   5 4.35
  14  0.228  0.250  0.093-  46 3.39  46 3.39  30 3.43  25 3.43  23 3.45  20 3.45  29 3.45  26 3.45
                            45 3.56  38 3.65  35 3.84   4 4.30   6 4.35   6 4.35
  15  0.365  0.250  0.404-  47 3.40  47 3.40  31 3.41  28 3.41  30 3.46  25 3.46  32 3.49  27 3.49
                            39 3.61  38 3.83  48 3.92   7 4.31   7 4.31   5 4.35   6 4.73   6 4.73
  16  0.451  0.750  0.606-  27 3.35  32 3.35  18 3.42  21 3.42  48 3.49  48 3.49  47 3.52  28 3.53
                            31 3.53  40 3.60   8 4.21   8 4.21   2 4.45
  17  0.049  0.070  0.145-  22 2.39  41 2.41  35 2.48  11 3.42   3 3.42   9 3.43
  18  0.497  0.930  0.855-  21 2.39  42 2.41  40 2.48  16 3.42   8 3.42  10 3.43
  19  0.085  0.930  0.640-  24 2.39  43 2.43  33 2.44   1 3.33  12 3.41   9 3.41   4 3.41  11 3.53

  20  0.188  0.068  0.353-  44 2.41  23 2.41  38 2.42  11 3.35   6 3.41   3 3.41  14 3.45  12 3.49

[...]

  48  0.475  0.250  0.541-  31 2.43  28 2.43  34 2.44  16 3.49  16 3.49   8 3.60  15 3.92

  LATTYP: Found a simple monoclinic cell.
 ALAT       =    34.7976803893
 B/A-ratio  =     0.1909071279
 C/A-ratio  =     1.1489048559
 COS(beta)  =    -0.9630505124

  Lattice vectors:

 A1 = ( -32.8927182617,   0.0000000000, -11.3555116939)
 A2 = (   0.0000000000,  -6.6431252206,   0.0000000000)
 A3 = (  32.8805923069,   0.0000000000,  22.7421414807)

Analysis of symmetry for initial positions (statically):
 Subroutine PRICEL returns:
 Original cell was already a primitive cell.

 Routine SETGRP: Setting up the symmetry group for a
 simple monoclinic supercell.

 Subroutine GETGRP returns: Found  4 space group operations
 (whereof  1 operations were pure point group operations)
 out of a pool of  4 trial point group operations.

The static configuration has the point symmetry C_1 .
 The point group associated with its full space group is C_2h.

Analysis of symmetry for dynamics (positions and initial velocities):
 Subroutine PRICEL returns:
 Original cell was already a primitive cell.

 Routine SETGRP: Setting up the symmetry group for a
 simple monoclinic supercell.

 Subroutine GETGRP returns: Found  4 space group operations
 (whereof  1 operations were pure point group operations)
 out of a pool of  4 trial point group operations.

The dynamic configuration has the point symmetry C_1 .
 The point group associated with its full space group is C_2h.

 Subroutine INISYM returns: Found  4 space group operations
 (whereof  1 operations are pure point group operations),
 and found     1 'primitive' translations

 KPOINTS: k-points along high symmetry lines
  interpolating k-points between supplied coordinates
  k-points in reciprocal lattice
Space group operators:
 irot       det(A)        alpha          n_x          n_y          n_z        tau_x        tau_y        tau_z
    1     1.000000     0.000000     1.000000     0.000000     0.000000     0.000000     0.000000     0.000000
    2    -1.000000     0.000000     1.000000     0.000000     0.000000    -0.454285     0.000000    -0.000000
    3     1.000000   180.000000     0.000000     1.000000     0.000000    -0.454285    -0.500000    -0.000000
    4    -1.000000   180.000000     0.000000     1.000000     0.000000     0.000000    -0.500000     0.000000

 SYSTEM =  unknown system
 POSCAR =  ba8 si16

 Startparameter for this run:
   NWRITE =      2    write-flag & timer
   PREC   = normal    normal or accurate (medium, high low for compatibility)
   ISTART =      0    job   : 0-new  1-cont  2-samecut
   ICHARG =     11    charge: 1-file 2-atom 10-const
   ISPIN  =      1    spin polarized calculation?
   LNONCOLLINEAR =      F non collinear calculations
   LSORBIT =      F    spin-orbit coupling
   INIWAV =      1    electr: 0-lowe 1-rand  2-diag
   LASPH  =      T    aspherical Exc in radial PAW
   METAGGA=      F    non-selfconsistent MetaGGA calc.

 Electronic Relaxation 1
   ENCUT  =  500.0 eV  36.75 Ry    6.06 a.u.  59.99 12.11 20.76*2*pi/ulx,y,z
   ENINI  =  500.0     initial cutoff
   ENAUG  =  351.2 eV  augmentation charge cutoff
   NELM   =    100;   NELMIN=  2; NELMDL= -5     # of ELM steps
   EDIFF  = 0.1E-05   stopping-criterion for ELM
   LREAL  =      T    real-space projection
   NLSPLINE    = F    spline interpolate recip. space projectors
   LCOMPAT=      F    compatible to vasp.4.4
   GGA_COMPAT  = T    GGA compatible to vasp.4.4-vasp.4.6
   LMAXPAW     = -100 max onsite density
   LMAXMIX     =    2 max onsite mixed and CHGCAR
   VOSKOWN=      0    Vosko Wilk Nusair interpolation
   ROPT   =   -0.00050  -0.00050
 Ionic relaxation
   EDIFFG = -.1E-01   stopping-criterion for IOM
   NSW    =      0    number of steps for IOM
   NBLOCK =      1;   KBLOCK =      1    inner block; outer block
   IBRION =     -1    ionic relax: 0-MD 1-quasi-New 2-CG
   NFREE  =      0    steps in history (QN), initial steepest desc. (CG)
   ISIF   =      2    stress and relaxation
   IWAVPR =     10    prediction:  0-non 1-charg 2-wave 3-comb
   ISYM   =      2    0-nonsym 1-usesym 2-fastsym
   LCORR  =      T    Harris-Foulkes like correction to forces

   POTIM  = 0.3000    time-step for ionic-motion
   TEIN   =    0.0    initial temperature
   TEBEG  =    0.0;   TEEND  =   0.0 temperature during run
   SMASS  =  -3.00    Nose mass-parameter (am)
   estimated Nose-frequenzy (Omega)   =  0.10E-29 period in steps =****** mass=  -0.247E-25a.u.
   SCALEE = 1.0000    scale energy and forces
   NPACO  =    256;   APACO  = 16.0  distance and # of slots for P.C.
   PSTRESS=    0.0 pullay stress

  Mass of Ions in am
   POMASS = 137.33 28.09
  Ionic Valenz
   ZVAL   =  10.00  4.00
  Atomic Wigner-Seitz radii
  virtual crystal weights
   VCA    =   1.00  1.00
   NELECT =     288.0000    total number of electrons
   NUPDOWN=      -1.0000    fix difference up-down

 DOS related values:
   EMIN   =  10.00;   EMAX   =-10.00  energy-range for DOS
   EFERMI =   0.00
   ISMEAR =     0;   SIGMA  =   0.01  broadening in eV -4-tet -1-fermi 0-gaus

 Electronic relaxation 2 (details)
   IALGO  =     38    algorithm
   LDIAG  =      T    sub-space diagonalisation (order eigenvalues)
[...]
     36     -12.5249      2.00000
     37     -12.5221      2.00000
     38     -12.5189      2.00000
     39     -12.5067      2.00000
     40     -12.4939      2.00000
     41     -12.4900      2.00000
     42     -12.4865      2.00000
     43     -12.4859      2.00000
     44     -12.4793      2.00000
     45     -12.4748      2.00000
     46     -12.4312      2.00000
     47     -12.4263      2.00000
     48     -12.3977      2.00000
     49     -12.3413      2.00000
     50     -12.3357      2.00000
     51     -12.3140      2.00000
     52     -12.3130      2.00000
     53     -12.3121      2.00000
     54     -12.3019      2.00000
     55     -12.2964      2.00000
     56     -12.2795      2.00000
     57     -12.2748      2.00000
     58     -12.2730      2.00000
     59     -12.2605      2.00000
     60     -12.2585      2.00000
[...]
    162       2.2910      0.00000
    163       2.2925      0.00000
    164       2.4038      0.00000
    165       2.5901      0.00000
    166       2.6397      0.00000
    167       2.6415      0.00000
    168       2.7084      0.00000
    169       2.7911      0.00000
    170       2.8394      0.00000
    171       2.8639      0.00000
    172       2.9987      0.00000
    173       3.0521      0.00000
    174       3.0814      0.00000
    175       3.1186      0.00000
    176       3.1365      0.00000

[...]

 k-point    80 :       0.0000    0.0000    0.0000
  band No.  band energies     occupation
      1     -28.1485      2.00000
      2     -28.1483      2.00000
      3     -27.1667      2.00000
      4     -27.1663      2.00000
      5     -27.1606      2.00000
      6     -27.1601      2.00000
      7     -27.1320      2.00000
      8     -27.1316      2.00000
      9     -27.0687      2.00000
     10     -27.0631      2.00000
     11     -27.0193      2.00000
     12     -27.0190      2.00000
     13     -27.0058      2.00000
     14     -27.0056      2.00000
     15     -26.9611      2.00000
     16     -26.9607      2.00000
     17     -13.5250      2.00000
     18     -13.5247      2.00000
     19     -13.4515      2.00000
     20     -13.4512      2.00000
     21     -13.3614      2.00000
     22     -13.3611      2.00000
     23     -12.7787      2.00000
     24     -12.7745      2.00000
     25     -12.7046      2.00000
     26     -12.6636      2.00000
     27     -12.6521      2.00000
     28     -12.6398      2.00000
     29     -12.6157      2.00000
     30     -12.6052      2.00000
     31     -12.5755      2.00000
     32     -12.5684      2.00000
     33     -12.5543      2.00000
     34     -12.5462      2.00000
     35     -12.5444      2.00000
     36     -12.5249      2.00000
     37     -12.5221      2.00000
     38     -12.5189      2.00000
     39     -12.5067      2.00000
     40     -12.4939      2.00000
     41     -12.4900      2.00000
     42     -12.4865      2.00000
     43     -12.4859      2.00000
     44     -12.4793      2.00000
     45     -12.4748      2.00000
     46     -12.4312      2.00000
     47     -12.4263      2.00000
     48     -12.3977      2.00000
     49     -12.3413      2.00000
     50     -12.3357      2.00000
     51     -12.3140      2.00000
     52     -12.3130      2.00000
     53     -12.3121      2.00000
     54     -12.3019      2.00000
     55     -12.2964      2.00000
     56     -12.2795      2.00000
     57     -12.2748      2.00000
     58     -12.2730      2.00000
     59     -12.2605      2.00000
     60     -12.2585      2.00000
[...]
    162       2.2910      0.00000
    163       2.2925      0.00000
    164       2.4038      0.00000
    165       2.5902      0.00000
    166       2.6397      0.00000
    167       2.6415      0.00000
    168       2.7083      0.00000
    169       2.7915      0.00000
    170       2.8407      0.00000
    171       2.8643      0.00000
    172       3.0011      0.00000
    173       3.0525      0.00000
    174       3.0805      0.00000
    175       3.1194      0.00000
    176       3.1590      0.00000

 soft charge-density along one line, spin component           1
         0         1         2         3         4         5         6         7         8         9
 total charge-density along one line

------------------------ aborting loop because EDIFF is reached ----------------------------------------

  FORCE on cell =-STRESS in cart. coord.  units (eV):
  Direction    XX          YY          ZZ          XY          YZ          ZX
  Alpha Z   517.20388   517.20388   517.20388
  Ewald  -61088.69145 52947.51065 52479.22697    -0.00003     0.00001   -10.06670
  Hartree-54949.76131 56510.04282 56136.97708     0.00000    -0.00000   -40.03167
  E(xc)    -930.96536  -932.52747  -932.55068    -0.00000     0.00000     0.02277
  Local  113010.06090************************     0.00002    -0.00001    53.65370
  n-local   676.87174   678.49165   680.71328    -0.00000    -0.00001    -1.32958
  augment  -335.29598  -335.47826  -335.53291    -0.00000    -0.00000     0.32191
  Kinetic  3100.31475  3116.02938  3102.87446    -0.00001     0.00000    -2.48793
  Fock        0.00000     0.00000     0.00000     0.00000     0.00000     0.00000
  Total      -0.26282    -1.02152    -0.70055     0.00000     0.00000     0.08251
  in kB      -0.16918    -0.65755    -0.45094     0.00000     0.00000     0.05311

 VOLUME and BASIS-vectors are now :
  energy-cutoff  :      500.00
  volume of cell :     2489.01
      direct lattice vectors                 reciprocal lattice vectors
    32.904844216  0.000000000 -0.031118093     0.030390693  0.000000000  0.000032364
     0.000000000  6.643125221  0.000000000     0.000000000  0.150531560  0.000000000
    -0.012125955  0.000000000 11.386629787     0.000083054  0.000000000  0.087822387

  length of vectors
    32.904858931  6.643125221 11.386636243     0.030390710  0.150531560  0.087822426

 FORCES acting on ions
    electron-ion (+dipol)            ewald-force                    non-local-force                 convergence-correction
   0.135E+04 0.568E-05 0.362E+02   -.135E+04 0.108E-04 -.351E+02   -.383E+01 0.750E-22 -.118E+01   -.995E-01 -.872E-05 0.333E-01
   -.135E+04 -.652E-04 -.362E+02   0.135E+04 -.140E-04 0.351E+02   0.383E+01 0.743E-22 0.118E+01   0.100E+00 0.380E-04 -.324E-01
   0.836E+03 -.633E-04 -.285E+02   -.835E+03 -.196E-04 0.280E+02   -.295E-01 0.196E-22 0.443E+00   -.942E-01 0.409E-04 -.140E-01
   0.735E+03 0.702E-05 0.318E+01   -.735E+03 0.151E-04 -.262E+01   0.436E+00 -.887E-23 -.628E+00   -.121E+00 -.127E-04 0.808E-01
   -.301E+02 0.662E-05 0.771E+01   0.298E+02 0.141E-04 -.788E+01   0.378E+00 0.109E-21 0.978E-01   0.120E-01 -.119E-04 0.386E-01
   0.301E+02 -.639E-04 -.771E+01   -.298E+02 -.199E-04 0.788E+01   -.378E+00 0.132E-21 -.978E-01   -.204E-01 0.414E-04 -.385E-01
   -.735E+03 -.631E-04 -.318E+01   0.735E+03 -.205E-04 0.262E+01   -.436E+00 0.840E-23 0.628E+00   0.125E+00 0.414E-04 -.822E-01
   -.836E+03 0.663E-05 0.285E+02   0.835E+03 0.141E-04 -.280E+02   0.295E-01 0.336E-22 -.443E+00   0.975E-01 -.119E-04 0.152E-01
   0.121E+04 -.631E-04 -.467E+02   -.121E+04 -.184E-04 0.464E+02   -.951E+00 0.660E-23 0.994E-01   -.178E+00 0.390E-04 0.204E+00
   -.121E+04 0.554E-05 0.467E+02   0.121E+04 0.165E-04 -.464E+02   0.951E+00 0.169E-22 -.994E-01   0.170E+00 -.135E-04 -.204E+00
   0.107E+04 0.670E-05 0.139E+02   -.107E+04 0.143E-04 -.141E+02   -.116E+01 -.484E-22 0.365E+00   -.127E+00 -.118E-04 -.837E-01
   0.509E+03 -.630E-04 0.254E+02   -.510E+03 -.179E-04 -.252E+02   0.748E+00 -.489E-22 -.212E+00   -.407E-01 0.394E-04 -.537E-01
   -.283E+03 -.632E-04 0.189E+01   0.283E+03 -.180E-04 -.185E+01   0.725E+00 0.311E-22 -.375E-01   0.789E-01 0.398E-04 0.216E-01
   0.283E+03 0.693E-05 -.189E+01   -.283E+03 0.171E-04 0.185E+01   -.725E+00 -.316E-22 0.375E-01   -.769E-01 -.142E-04 -.215E-01
   -.509E+03 0.681E-05 -.254E+02   0.510E+03 0.172E-04 0.252E+02   -.748E+00 0.221E-22 0.212E+00   0.443E-01 -.143E-04 0.532E-01
   -.107E+04 -.651E-04 -.139E+02   0.107E+04 -.148E-04 0.141E+02   0.116E+01 0.593E-22 -.365E+00   0.130E+00 0.388E-04 0.839E-01
   0.542E+03 0.358E+02 -.435E+02   -.541E+03 -.374E+02 0.444E+02   -.494E+00 0.155E+01 -.826E+00   -.758E-01 0.301E-01 -.270E-01
   -.542E+03 -.358E+02 0.435E+02   0.541E+03 0.374E+02 -.444E+02   0.494E+00 -.155E+01 0.826E+00   0.753E-01 -.301E-01 0.268E-01
   0.405E+03 -.288E+02 0.846E+01   -.404E+03 0.301E+02 -.777E+01   -.490E+00 -.133E+01 -.670E+00   -.421E-01 0.200E-01 -.167E-01
   0.207E+03 0.326E+02 0.175E+02   -.208E+03 -.340E+02 -.181E+02   0.509E+00 0.142E+01 0.639E+00   -.694E-01 0.216E-02 -.352E-01
   -.542E+03 0.358E+02 0.435E+02   0.541E+03 -.374E+02 -.444E+02   0.494E+00 0.155E+01 0.826E+00   0.753E-01 0.301E-01 0.268E-01
   0.542E+03 -.358E+02 -.435E+02   -.541E+03 0.374E+02 0.444E+02   -.494E+00 -.155E+01 -.826E+00   -.758E-01 -.301E-01 -.270E-01
   0.207E+03 -.326E+02 0.175E+02   -.208E+03 0.340E+02 -.181E+02   0.509E+00 -.142E+01 0.639E+00   -.694E-01 -.217E-02 -.352E-01
   0.405E+03 0.288E+02 0.846E+01   -.404E+03 -.301E+02 -.777E+01   -.490E+00 0.133E+01 -.670E+00   -.421E-01 -.200E-01 -.167E-01
   -.101E+03 0.297E+02 -.176E+02   0.101E+03 -.312E+02 0.183E+02   0.430E+00 0.149E+01 -.693E+00   -.137E-01 -.430E-02 -.159E-01
   0.101E+03 -.297E+02 0.176E+02   -.101E+03 0.312E+02 -.183E+02   -.430E+00 -.149E+01 0.693E+00   0.141E-01 0.461E-02 0.154E-01
   -.207E+03 -.326E+02 -.175E+02   0.208E+03 0.340E+02 0.181E+02   -.509E+00 -.142E+01 -.639E+00   0.701E-01 -.260E-02 0.352E-01
   -.405E+03 0.288E+02 -.846E+01   0.404E+03 -.301E+02 0.777E+01   0.490E+00 0.133E+01 0.670E+00   0.424E-01 -.196E-01 0.165E-01
   0.101E+03 0.297E+02 0.176E+02   -.101E+03 -.312E+02 -.183E+02   -.430E+00 0.149E+01 0.693E+00   0.141E-01 -.460E-02 0.154E-01
   -.101E+03 -.297E+02 -.176E+02   0.101E+03 0.312E+02 0.183E+02   0.430E+00 -.149E+01 -.693E+00   -.137E-01 0.430E-02 -.159E-01
   -.405E+03 -.288E+02 -.846E+01   0.404E+03 0.301E+02 0.777E+01   0.490E+00 -.133E+01 0.670E+00   0.424E-01 0.196E-01 0.165E-01
   -.207E+03 0.326E+02 -.175E+02   0.208E+03 -.340E+02 0.181E+02   -.509E+00 0.142E+01 -.639E+00   0.701E-01 0.261E-02 0.352E-01
   0.575E+03 -.708E-05 0.331E+02   -.576E+03 -.714E-05 -.325E+02   0.162E+01 -.267E-22 -.524E+00   -.967E-01 0.539E-05 -.574E-01
   -.575E+03 0.233E-05 -.331E+02   0.576E+03 0.740E-05 0.325E+02   -.162E+01 0.283E-22 0.524E+00   0.955E-01 -.601E-05 0.578E-01
   0.333E+03 0.571E-05 -.135E+02   -.331E+03 0.829E-05 0.129E+02   -.211E+01 0.984E-22 0.580E+00   -.822E-01 -.700E-05 0.858E-02
   0.285E+03 -.627E-05 -.491E+01   -.287E+03 -.792E-05 0.536E+01   0.197E+01 -.206E-21 -.519E+00   -.308E-01 0.748E-05 0.605E-01
   -.121E+02 -.558E-05 0.133E+01   0.102E+02 -.792E-05 -.205E+01   0.184E+01 0.246E-22 0.750E+00   0.669E-02 0.714E-05 -.131E-01
   0.121E+02 0.554E-05 -.133E+01   -.102E+02 0.816E-05 0.205E+01   -.184E+01 -.294E-22 -.750E+00   -.718E-02 -.693E-05 0.133E-01
   -.285E+03 0.539E-05 0.491E+01   0.287E+03 0.816E-05 -.536E+01   -.197E+01 0.209E-21 0.519E+00   0.321E-01 -.695E-05 -.606E-01
   -.333E+03 -.505E-05 0.135E+02   0.331E+03 -.791E-05 -.129E+02   0.211E+01 -.110E-21 -.580E+00   0.826E-01 0.708E-05 -.800E-02
   0.518E+03 0.318E-05 0.277E+01   -.518E+03 0.822E-05 -.434E+01   0.199E+00 -.116E-21 0.152E+01   -.561E-01 -.655E-05 0.594E-01
   -.518E+03 -.651E-05 -.277E+01   0.518E+03 -.822E-05 0.434E+01   -.199E+00 0.878E-22 -.152E+01   0.547E-01 0.667E-05 -.596E-01
   0.473E+03 -.545E-05 0.663E+02   -.472E+03 -.775E-05 -.683E+02   -.643E+00 0.117E-21 0.210E+01   -.838E-01 0.605E-05 -.539E-01
   0.199E+03 0.310E-05 -.299E+02   -.199E+03 0.869E-05 0.315E+02   0.109E+00 0.247E-21 -.168E+01   -.114E-01 -.707E-05 -.925E-02
   -.114E+03 0.298E-05 0.386E+02   0.114E+03 0.895E-05 -.401E+02   0.979E-01 -.495E-23 0.153E+01   0.387E-01 -.727E-05 -.287E-01
   0.114E+03 -.715E-05 -.386E+02   -.114E+03 -.938E-05 0.401E+02   -.979E-01 -.396E-22 -.153E+01   -.383E-01 0.753E-05 0.291E-01
   -.199E+03 -.734E-05 0.299E+02   0.199E+03 -.913E-05 -.315E+02   -.109E+00 0.231E-21 0.168E+01   0.123E-01 0.758E-05 0.983E-02
   -.473E+03 0.430E-05 -.663E+02   0.472E+03 0.750E-05 0.683E+02   0.643E+00 -.690E-22 -.210E+01   0.842E-01 -.616E-05 0.536E-01
   -.104E-02 -.485E-03 -.141E-02   -.153E-11 -.476E-13 0.284E-13   0.000E+00 -.222E-15 -.888E-15   0.195E-02 0.209E-03 0.787E-03

 POSITION                                       TOTAL-FORCE (eV/Angst)
      0.30033      1.66078      7.94842         0.021019      0.000000     -0.032420
     17.64422      4.98234      3.42123        -0.021019      0.000000      0.032420
      4.23571      4.98234      2.17297        -0.055637      0.000000     -0.025192
      4.64183      1.66078      9.20102         0.035073     -0.000000      0.016175
      9.12801      1.66078      7.84513         0.032389     -0.000000     -0.025816
      8.81654      4.98234      3.52452        -0.032389     -0.000000      0.025816
     13.30272      4.98234      2.16863        -0.035073     -0.000000     -0.016175
     13.70884      1.66078      9.19668         0.055637      0.000000      0.025192
      1.93224      4.98234     10.36781        -0.000584      0.000000     -0.003872
     16.01231      1.66078      1.00184         0.000584     -0.000000      0.003872
      3.09913      1.66078      4.48877        -0.027690     -0.000000      0.035697
      5.92697      4.98234      6.77806         0.012988      0.000000     -0.035209
     10.45907      4.98234     10.31738         0.014204     -0.000000      0.023893
      7.48548      1.66078      1.05226        -0.014204     -0.000000     -0.023893
     12.01758      1.66078      4.59159        -0.012988     -0.000000      0.035209
     14.84541      4.98234      6.88088         0.027690     -0.000000     -0.035697
      1.60155      0.46493      1.65088         0.018184      0.008259      0.012534
     16.34299      6.17820      9.71877        -0.018184     -0.008259     -0.012534
      2.77709      6.17892      7.28894        -0.018160     -0.041253     -0.003019
      6.18612      0.45339      4.01226         0.032109      0.026823      0.010195
     16.34299      3.78649      9.71877        -0.018184      0.008259     -0.012534
      1.60155      2.85664      1.65088         0.018184     -0.008259      0.012534
      6.18612      2.86817      4.01226         0.032109     -0.026823      0.010195
      2.77709      3.78577      7.28894        -0.018160      0.041253     -0.003019
     10.63888      0.45640      1.65495         0.033998      0.021988     -0.008711
      7.30567      6.18673      9.71469        -0.033998     -0.021988      0.008711
     11.75843      6.18973      7.35738        -0.032109     -0.026823     -0.010195
     15.16746      0.46420      4.08071         0.018160      0.041253      0.003019
      7.30567      3.77796      9.71469        -0.033998      0.021988      0.008711
     10.63888      2.86517      1.65495         0.033998     -0.021988     -0.008711
     15.16746      2.85736      4.08071         0.018160     -0.041253      0.003019
     11.75843      3.77495      7.35738        -0.032109      0.026823     -0.010195
      0.66572      4.98234      7.00875         0.027262      0.000000      0.022400
     17.27882      1.66078      4.36090        -0.027262      0.000000     -0.022400
      3.64506      1.66078      0.92672         0.034077     -0.000000     -0.006223
      5.30615      4.98234     10.33083        -0.003246     -0.000000     -0.005735
      9.75572      4.98234      6.73736        -0.001375     -0.000000      0.011480
      8.18883      1.66078      4.63228         0.001375     -0.000000     -0.011480
     12.63840      1.66078      1.03882         0.003246     -0.000000      0.005735
     14.29949      4.98234     10.44293        -0.034077     -0.000000      0.006223
      1.60212      1.66078     10.94381         0.012019     -0.000000      0.015229
     16.34243      4.98234      0.42584        -0.012019     -0.000000     -0.015229
      2.32542      4.98234      5.22460        -0.000474      0.000000     -0.006728
      6.22508      1.66078      6.09785        -0.009337     -0.000000     -0.004729
     10.70619      1.66078     10.95110        -0.016919     -0.000000     -0.000196
      7.23836      4.98234      0.41854         0.016919      0.000000      0.000196
     11.71947      4.98234      5.27180         0.009337      0.000000      0.004729
     15.61912      1.66078      6.14504         0.000474     -0.000000      0.006728
    total drift:                                0.000914     -0.000277     -0.000621

  FREE ENERGIE OF THE ION-ELECTRON SYSTEM (eV)
  free  energy   TOTEN  =      -188.56559826 eV

  energy  without entropy=     -188.56559826  energy(sigma->0) =     -188.56559826

 writing wavefunctions