 vasp.5.4.4.18Apr17-6-g9f103f2a35 (build Nov 21 2017 15:30:27) complex

 executed on             LinuxIFC date 2020.12.16  15:48:46

 INCAR:
 POTCAR:   PAW_PBE Ba_sv 06Sep2000
 POTCAR:   PAW_PBE Ge 05Jan2001

 POTCAR:   PAW_PBE Ba_sv 06Sep2000
   VRHFIN =Ba: 5s5p6s

   TITEL  = PAW_PBE Ba_sv 06Sep2000
   POMASS =  137.327; ZVAL   =   10.000    mass and valenz
   ENMAX  =  187.210; ENMIN  =  140.408 eV
   QCUT   =   -3.709; QGAM   =    7.419    optimization parameters

   Description
     l     E      TYP  RCUT    TYP  RCUT
     0   .000     23  2.800
     0   .000     23  2.800
     1   .000     23  2.700
     1  2.000     23  2.700
     2   .000     23  2.700
     2   .000     23  2.700

 POTCAR:   PAW_PBE Ge 05Jan2001
   VRHFIN =Ge: s2p2

   TITEL  = PAW_PBE Ge 05Jan2001
   POMASS =   72.610; ZVAL   =    4.000    mass and valenz
   ENMAX  =  173.807; ENMIN  =  130.355 eV
   QCUT   =   -3.574; QGAM   =    7.148    optimization parameters

   Description
     l     E      TYP  RCUT    TYP  RCUT
     0   .000     23  2.300
     0   .000     23  2.300
     1   .000     23  2.300
     1   .000     23  2.300
     2   .000     23  2.300
     3  -.100      7  2.300

 Optimization of the real space projectors (new method)

 maximal supplied QI-value         = 13.42
 optimisation between [QCUT,QGAM] = [ 11.40, 22.81] = [ 36.42,145.68] Ry
 Optimized for a Real-space Cutoff    1.56 Angstroem

   l    n(q)    QCUT    max X(q) W(low)/X(q) W(high)/X(q)  e(spline)
   0     11    11.404     7.198    0.14E-04    0.26E-04    0.99E-07
   0     11    11.404    15.603    0.29E-04    0.72E-04    0.44E-06
   1     10    11.404     3.746    0.20E-04    0.24E-04    0.43E-07
   1     10    11.404     4.362    0.22E-03    0.97E-04    0.22E-06
   2     10    11.404     5.782    0.83E-04    0.62E-05    0.27E-06
   2     10    11.404    65.505    0.42E-03    0.31E-04    0.12E-05
 Optimization of the real space projectors (new method)

 maximal supplied QI-value         = 16.25
 optimisation between [QCUT,QGAM] = [ 11.38, 22.75] = [ 36.24,144.96] Ry
 Optimized for a Real-space Cutoff    1.27 Angstroem

   l    n(q)    QCUT    max X(q) W(low)/X(q) W(high)/X(q)  e(spline)
   0      9    11.376     8.651    0.25E-04    0.12E-04    0.13E-07
   0      9    11.376    33.192    0.14E-03    0.18E-03    0.86E-07
   1      8    11.376     5.899    0.25E-04    0.48E-04    0.38E-07
   1      8    11.376    27.289    0.31E-03    0.36E-04    0.16E-06
   2      8    11.376     4.673    0.15E-03    0.22E-03    0.50E-07
 PAW_PBE Ba_sv 06Sep2000                :
 PAW_PBE Ge 05Jan2001                   :

 POSCAR: ba8 ge16
  positions in cartesian coordinates
 exchange correlation table for  LEXCH =        8
   RHO(1)=    0.500       N(1)  =     2000
   RHO(2)=  100.500       N(2)  =     4000

 ion  position               nearest neighbor table
   1  0.015  0.250  0.691-  24 3.40  18 3.40  13 3.45  10 3.45  16 3.45  11 3.45  21 3.60  17 3.63
                            17 3.63   5 4.41   5 4.41   7 4.42   4 4.71   4 4.71
   2  0.985  0.750  0.309-  23 3.40  17 3.40   9 3.45  14 3.45  12 3.45  15 3.45  22 3.60  18 3.63
                            18 3.63   6 4.41   6 4.41   8 4.42   3 4.71   3 4.71
   3  0.485  0.750  0.191-  22 3.40  20 3.40  12 3.45  15 3.45   9 3.45  14 3.45  23 3.60  19 3.63
                            19 3.63   7 4.41   7 4.41   5 4.42   2 4.71   2 4.71
   4  0.515  0.250  0.809-  21 3.40  19 3.40  16 3.45  11 3.45  13 3.45  10 3.45  24 3.60  20 3.63
                            20 3.63   8 4.41   8 4.41   6 4.42   1 4.71   1 4.71
   5  0.159  0.750  0.907-  10 3.46  13 3.46  21 3.48  21 3.48  11 3.50  16 3.50  22 3.54   9 3.55
                            14 3.55  17 3.71  20 3.82   1 4.41   1 4.41   3 4.42
   6  0.841  0.250  0.093-  14 3.46   9 3.46  22 3.48  22 3.48  15 3.50  12 3.50  21 3.54  13 3.55
                            10 3.55  18 3.71  19 3.82   2 4.41   2 4.41   4 4.42
   7  0.341  0.250  0.407-  15 3.46  12 3.46  23 3.48  23 3.48  14 3.50   9 3.50  24 3.54  16 3.55
                            11 3.55  19 3.71  18 3.82   3 4.41   3 4.41   1 4.42
   8  0.659  0.750  0.593-  11 3.46  16 3.46  24 3.48  24 3.48  10 3.50  13 3.50  23 3.54  12 3.55
                            15 3.55  20 3.71  17 3.82   4 4.41   4 4.41   2 4.42
   9  0.194  0.073  0.147-  14 2.41  21 2.41  19 2.42   2 3.45   3 3.45   6 3.46   7 3.50   5 3.55

  10  0.806  0.927  0.853-  13 2.41  22 2.41  20 2.42   1 3.45   4 3.45   5 3.46   8 3.50   6 3.55

[...]

  24  0.698  0.250  0.533-  15 2.41  12 2.41  18 2.45   1 3.40   8 3.48   8 3.48   7 3.54   4 3.60

  LATTYP: Found a simple orthorhombic cell.
 ALAT       =     6.7778496742
 B/A-ratio  =     1.3292516818
 C/A-ratio  =     1.7117734747

  Lattice vectors:

 A1 = (   0.0000000000,  -6.7778496742,   0.0000000000)
 A2 = (  -9.0094680786,   0.0000000000,   0.0000000000)
 A3 = (   0.0000000000,   0.0000000000, -11.6021432877)

Analysis of symmetry for initial positions (statically):
 Subroutine PRICEL returns:
 Original cell was already a primitive cell.

 Routine SETGRP: Setting up the symmetry group for a
 simple orthorhombic supercell.

 Subroutine GETGRP returns: Found  8 space group operations
 (whereof  2 operations were pure point group operations)
 out of a pool of  8 trial point group operations.

The static configuration has the point symmetry S_2 .
 The point group associated with its full space group is D_2h.

Analysis of symmetry for dynamics (positions and initial velocities):
 Subroutine PRICEL returns:
 Original cell was already a primitive cell.

 Routine SETGRP: Setting up the symmetry group for a
 simple orthorhombic supercell.

 Subroutine GETGRP returns: Found  8 space group operations
 (whereof  2 operations were pure point group operations)
 out of a pool of  8 trial point group operations.

The dynamic configuration has the point symmetry S_2 .
 The point group associated with its full space group is D_2h.

 Subroutine INISYM returns: Found  8 space group operations
 (whereof  2 operations are pure point group operations),
 and found     1 'primitive' translations

 KPOINTS: k-density: 6.0

Automatic generation of k-mesh.
Space group operators:
 irot       det(A)        alpha          n_x          n_y          n_z        tau_x        tau_y        tau_z
    1     1.000000     0.000000     1.000000     0.000000     0.000000     0.000000     0.000000     0.000000
    2    -1.000000     0.000000     1.000000     0.000000     0.000000     0.000000     0.000000     0.000000
    3     1.000000   180.000000     0.000000     0.000000     1.000000    -0.500000     0.000000    -0.500000
    4    -1.000000   180.000000     0.000000     0.000000     1.000000    -0.500000     0.000000    -0.500000
    5     1.000000   180.000000     1.000000     0.000000     0.000000    -0.500000    -0.500000    -0.500000
    6    -1.000000   180.000000     1.000000     0.000000     0.000000    -0.500000    -0.500000    -0.500000
    7     1.000000   180.000000     0.000000     1.000000     0.000000    -0.000000    -0.500000    -0.000000
    8    -1.000000   180.000000     0.000000     1.000000     0.000000     0.000000    -0.500000     0.000000

 Subroutine IBZKPT returns following result:

 Found     36 irreducible k-points:

 Following reciprocal coordinates:
            Coordinates               Weight
  0.000000  0.000000  0.000000      1.000000
  0.200000  0.000000  0.000000      2.000000
  0.400000  0.000000  0.000000      2.000000
  0.000000  0.166667  0.000000      2.000000
  0.200000  0.166667  0.000000      4.000000
  0.400000  0.166667  0.000000      4.000000
  0.000000  0.333333  0.000000      2.000000
  0.200000  0.333333  0.000000      4.000000
  0.400000  0.333333  0.000000      4.000000
  0.000000  0.500000  0.000000      1.000000
  0.200000  0.500000  0.000000      2.000000
  0.400000  0.500000  0.000000      2.000000
  0.000000  0.000000  0.250000      2.000000
  0.200000  0.000000  0.250000      4.000000
  0.400000  0.000000  0.250000      4.000000
  0.000000  0.166667  0.250000      4.000000
  0.200000  0.166667  0.250000      8.000000
  0.400000  0.166667  0.250000      8.000000
  0.000000  0.333333  0.250000      4.000000
  0.200000  0.333333  0.250000      8.000000
  0.400000  0.333333  0.250000      8.000000
  0.000000  0.500000  0.250000      2.000000
  0.200000  0.500000  0.250000      4.000000
  0.400000  0.500000  0.250000      4.000000
  0.000000  0.000000  0.500000      1.000000
  0.200000  0.000000  0.500000      2.000000
  0.400000  0.000000  0.500000      2.000000
  0.000000  0.166667  0.500000      2.000000
  0.200000  0.166667  0.500000      4.000000
  0.400000  0.166667  0.500000      4.000000
  0.000000  0.333333  0.500000      2.000000
  0.200000  0.333333  0.500000      4.000000
  0.400000  0.333333  0.500000      4.000000
  0.000000  0.500000  0.500000      1.000000
  0.200000  0.500000  0.500000      2.000000
  0.400000  0.500000  0.500000      2.000000

 Following cartesian coordinates:
            Coordinates               Weight
  0.000000  0.000000  0.000000      1.000000
  0.022199  0.000000  0.000000      2.000000
  0.044398  0.000000  0.000000      2.000000
  0.000000  0.024590  0.000000      2.000000
  0.022199  0.024590  0.000000      4.000000
  0.044398  0.024590  0.000000      4.000000
  0.000000  0.049180  0.000000      2.000000
  0.022199  0.049180  0.000000      4.000000
  0.044398  0.049180  0.000000      4.000000
  0.000000  0.073770  0.000000      1.000000
  0.022199  0.073770  0.000000      2.000000
  0.044398  0.073770  0.000000      2.000000
  0.000000  0.000000  0.021548      2.000000
  0.022199  0.000000  0.021548      4.000000
  0.044398  0.000000  0.021548      4.000000
  0.000000  0.024590  0.021548      4.000000
  0.022199  0.024590  0.021548      8.000000
  0.044398  0.024590  0.021548      8.000000
  0.000000  0.049180  0.021548      4.000000
  0.022199  0.049180  0.021548      8.000000
  0.044398  0.049180  0.021548      8.000000
  0.000000  0.073770  0.021548      2.000000
  0.022199  0.073770  0.021548      4.000000
  0.044398  0.073770  0.021548      4.000000
  0.000000  0.000000  0.043095      1.000000
  0.022199  0.000000  0.043095      2.000000
  0.044398  0.000000  0.043095      2.000000
  0.000000  0.024590  0.043095      2.000000
  0.022199  0.024590  0.043095      4.000000
  0.044398  0.024590  0.043095      4.000000
  0.000000  0.049180  0.043095      2.000000
  0.022199  0.049180  0.043095      4.000000
  0.044398  0.049180  0.043095      4.000000
  0.000000  0.073770  0.043095      1.000000
  0.022199  0.073770  0.043095      2.000000
  0.044398  0.073770  0.043095      2.000000

 TETIRR: Found    360 inequivalent tetrahedra from      720

 SYSTEM =  unknown system
 POSCAR =  ba8 ge16

 Startparameter for this run:
   NWRITE =      2    write-flag & timer
   PREC   = normal    normal or accurate (medium, high low for compatibility)
   ISTART =      0    job   : 0-new  1-cont  2-samecut
   ICHARG =      2    charge: 1-file 2-atom 10-const
   ISPIN  =      1    spin polarized calculation?
   LNONCOLLINEAR =      F non collinear calculations
   LSORBIT =      F    spin-orbit coupling
[...]

 Conjugate gradient step on ions:
 trial-energy change:   -0.082418  1 .order   -0.082196   -0.106773   -0.057619
  (g-gl).g = 0.120E+00      g.g   = 0.119E+00  gl.gl    = 0.855E+01
 g(Force)  = 0.364E-01   g(Stress)= 0.828E-01 ortho     =-0.107E-02
 gamma     =   0.01406
 trial     =   0.89618
 opt step  =   1.88994  (harmonic =   1.94671) maximal distance =0.02474044
 next E    =  -104.168919   (d E  =  -0.11467)

[...]

 d Force = 0.2113705E-01[ 0.135E-01, 0.288E-01]  d Energy = 0.3071890E-01-0.958E-02
 d Force = 0.4888968E+01[ 0.477E+01, 0.501E+01]  d Ewald  = 0.4821960E+02-0.433E+02

[...]

 d Force =-0.4819188E-03[-0.490E-03,-0.474E-03]  d Energy = 0.4852444E-04-0.530E-03
 d Force =-0.1678985E+00[-0.168E+00,-0.168E+00]  d Ewald  =-0.1691377E+01 0.152E+01

[...]

 d Force = 0.2461533E-02[-0.178E-02, 0.670E-02]  d Energy = 0.3241657E-02-0.780E-03
 d Force = 0.1842501E+01[ 0.182E+01, 0.187E+01]  d Ewald  =-0.3370477E+01 0.521E+01

 Conjugate gradient step on ions:
 trial-energy change:   -0.003242  1 .order   -0.003430   -0.008930    0.002071
  (g-gl).g = 0.114E-01      g.g   = 0.820E-02  gl.gl    = 0.119E+00
 g(Force)  = 0.481E-02   g(Stress)= 0.340E-02 ortho     = 0.322E-04
 gamma     =   0.09559
 trial     =   1.08799
 opt step  =   0.86500  (harmonic =   0.88317) maximal distance =0.00510283
 next E    =  -104.170893   (d E  =  -0.00346)

[...]

 d Force = 0.1862301E-03[ 0.827E-05, 0.364E-03]  d Energy = 0.2291703E-03-0.429E-04
 d Force =-0.3728047E+00[-0.374E+00,-0.372E+00]  d Ewald  = 0.6947505E+00-0.107E+01

[...]

 d Force = 0.5637836E-03[ 0.305E-03, 0.823E-03]  d Energy = 0.6467027E-03-0.829E-04
 d Force =-0.3207197E+00[-0.323E+00,-0.318E+00]  d Ewald  =-0.1897082E+01 0.158E+01

 Conjugate gradient step on ions:
 trial-energy change:   -0.000647  1 .order   -0.000668   -0.000987   -0.000349
  (g-gl).g = 0.572E-03      g.g   = 0.623E-03  gl.gl    = 0.160E-02
 g(Force)  = 0.424E-03   g(Stress)= 0.199E-03 ortho     = 0.779E-04
 gamma     =   0.35845
 trial     =   1.51735
 opt step  =   2.84666  (harmonic =   2.34655) maximal distance =0.00528275
 next E    =  -104.174498   (d E  =  -0.00079)

[...]

 d Force = 0.1097452E-03[-0.475E-04, 0.267E-03]  d Energy = 0.9589394E-04 0.139E-04
 d Force =-0.2851898E+00[-0.287E+00,-0.283E+00]  d Ewald  =-0.1665604E+01 0.138E+01

[...]

 d Force = 0.3728190E-03[ 0.328E-03, 0.418E-03]  d Energy = 0.4298493E-03-0.570E-04
 d Force =-0.3275415E+00[-0.329E+00,-0.326E+00]  d Ewald  =-0.1107415E+01 0.780E+00

[...]

 d Force = 0.4616848E-03[-0.509E-04, 0.974E-03]  d Energy = 0.3797141E-03 0.820E-04
 d Force =-0.9889926E+00[-0.100E+01,-0.978E+00]  d Ewald  =-0.3301780E+01 0.231E+01

[...]

 d Force = 0.5194468E-05[ 0.480E-05, 0.559E-05]  d Energy = 0.2024629E-05 0.317E-05
 d Force =-0.5667481E-02[-0.567E-02,-0.566E-02]  d Ewald  = 0.1005169E+00-0.106E+00

[...]

 d Force = 0.7911581E-05[ 0.622E-05, 0.960E-05]  d Energy =-0.1747513E-05 0.966E-05
 d Force =-0.1135025E-01[-0.114E-01,-0.113E-01]  d Ewald  = 0.2010291E+00-0.212E+00

[...]

 d Force =-0.3991290E-05[-0.462E-05,-0.337E-05]  d Energy = 0.4416352E-05-0.841E-05
 d Force = 0.6147211E-02[ 0.614E-02, 0.615E-02]  d Ewald  =-0.1088035E+00 0.115E+00

 real space projection operators:
  max/ min on nodes  :       1423.95       1322.40

[...]

 eigenvalue-minimisations  :  3736
 total energy-change (2. order) : 0.1053083E-05  (-0.2070641E-07)
 number of electron     144.0000020 magnetization
 augmentation part      -24.4991346 magnetization

 Broyden mixing:
  rms(total) = 0.20308E-04    rms(broyden)= 0.20308E-04
  rms(prec ) = 0.26304E-04
  weight for this iteration     100.00

 eigenvalues of (default mixing * dielectric matrix)
  average eigenvalue GAMMA=   1.5498
  2.5488  2.0368  0.9072  1.0595  1.1963

[...]

--------------------------------------- Iteration     21(   7)  ---------------------------------------

 BZINTS: Fermi energy:  2.868869;144.000000 electrons
         Band energy:-992.867595;  BLOECHL correction:  0.000000

 eigenvalue-minimisations  :  3656
 total energy-change (2. order) :-0.6307346E-07  (-0.5586725E-08)
 number of electron     144.0000020 magnetization
 augmentation part      -24.4991346 magnetization

 Free energy of the ion-electron system (eV)
  alpha Z        PSCENC =       568.43449076
  Ewald energy   TEWEN  =     -6370.09519883
  -Hartree energ DENC   =      -906.26451710
  -exchange      EXHF   =         0.00000000
  -V(xc)+E(xc)   XCENC  =        83.39029237
  PAW double counting   =      4072.00542134    -3836.35570632
  entropy T*S    EENTRO =         0.00000000
  eigenvalues    EBANDS =      -992.86759477
  atomic energy  EATOM  =      7281.73199354
  Solvation  Ediel_sol  =         0.00000000
  free energy    TOTEN  =      -100.02081903 eV

  energy without entropy =     -100.02081903  energy(sigma->0) =     -100.02081903

 average (electrostatic) potential at core
  the test charge radii are     1.2192  1.1631
  (the norm of the test charge is              1.0000)
       1 -37.2693       2 -37.2693       3 -37.2693       4 -37.2693       5 -37.3148
       6 -37.3148       7 -37.3147       8 -37.3147       9 -33.2277      10 -33.2277
      11 -33.2277      12 -33.2277      13 -33.2277      14 -33.2277      15 -33.2277
      16 -33.2277      17 -33.2713      18 -33.2713      19 -33.2713      20 -33.2713
      21 -33.1505      22 -33.1505      23 -33.1505      24 -33.1505

 E-fermi :   2.8689     XC(G=0):  -8.8658     alpha+bet : -9.2857

[...]

 k-point    36 :       0.4000    0.5000    0.5000
  band No.  band energies     occupation
      1     -24.9794      2.00000
      2     -24.9794      2.00000
      3     -24.9792      2.00000
      4     -24.9792      2.00000
      5     -24.9594      2.00000
      6     -24.9594      2.00000
      7     -24.9575      2.00000
      8     -24.9575      2.00000
      9     -10.5767      2.00000
     10     -10.5767      2.00000
     11     -10.5533      2.00000
     12     -10.5533      2.00000
     13     -10.5034      2.00000
     14     -10.5034      2.00000
     15     -10.4852      2.00000
     16     -10.4852      2.00000
     17     -10.3842      2.00000
     18     -10.3842      2.00000
     19     -10.3310      2.00000
     20     -10.3310      2.00000
     21     -10.2872      2.00000
     22     -10.2872      2.00000
     23     -10.2852      2.00000
     24     -10.2852      2.00000
     25     -10.2406      2.00000
     26     -10.2406      2.00000
     27     -10.2254      2.00000
     28     -10.2254      2.00000
     29     -10.2125      2.00000
     30     -10.2125      2.00000
     31     -10.2095      2.00000
     32     -10.2095      2.00000
     33      -7.9453      2.00000
     34      -7.9453      2.00000
     35      -7.9447      2.00000
     36      -7.9447      2.00000
     37      -4.2069      2.00000
     38      -4.2069      2.00000
     39      -4.1047      2.00000
     40      -4.1047      2.00000
     41      -3.8691      2.00000
     42      -3.8691      2.00000
     43      -3.8378      2.00000
     44      -3.8378      2.00000
     45      -3.6901      2.00000
     46      -3.6901      2.00000
     47      -3.6244      2.00000
     48      -3.6244      2.00000
     49       0.2991      2.00000
     50       0.2991      2.00000
     51       0.3951      2.00000
     52       0.3951      2.00000
     53       0.7673      2.00000
     54       0.7673      2.00000
     55       0.8893      2.00000
     56       0.8893      2.00000
     57       1.1481      2.00000
     58       1.1481      2.00000
     59       1.2875      2.00000
     60       1.2875      2.00000
[...]
     74       3.4205      0.00000
     75       3.5949      0.00000
     76       3.5949      0.00000
     77       3.7413      0.00000
     78       3.7413      0.00000
     79       3.9786      0.00000
     80       3.9786      0.00000
     81       4.5176      0.00000
     82       4.5176      0.00000
     83       4.6519      0.00000
     84       4.6519      0.00000
     85       4.9714      0.00000
     86       4.9714      0.00000
     87       5.0220      0.00000
     88       5.0220      0.00000

 soft charge-density along one line, spin component           1
         0         1         2         3         4         5         6         7         8         9
 total charge-density along one line

------------------------ aborting loop because EDIFF is reached ----------------------------------------

         DFTD3 V3.0 Rev 1
 Edisp (eV)   -4.15495

 E6    (eV) :    -1.6515
 E8    (eV) :    -2.5035
 % E8        : 60.25

  FORCE on cell =-STRESS in cart. coord.  units (eV):
  Direction    XX          YY          ZZ          XY          YZ          ZX
  Alpha Z   568.43449   568.43449   568.43449
  Ewald   -2138.75843 -2117.82045 -2113.53391    -0.00000    -0.00000    -0.00012
  Hartree   291.89700   308.69491   305.67241     0.00000    -0.00000     0.00002
  E(xc)    -482.83249  -482.56342  -482.48985    -0.00000    -0.00000    -0.00000
  Local     205.43150   173.50303   173.37496     0.00000    -0.00000     0.00007
  n-local    17.19310    14.62042    15.24168    -0.15676    -0.04880    -0.06159
  augment   -51.43073   -50.87396   -50.94389    -0.00000    -0.00000    -0.00000
  Kinetic  1594.70576  1590.53725  1588.76468     0.73715    -0.97833     0.08859
  Fock        0.00000     0.00000     0.00000     0.00000     0.00000     0.00000
  vdW        -4.56548    -4.69930    -4.50298     0.00000    -0.00000    -0.00000
  Total       0.07472    -0.16704     0.01759     0.00000     0.00000     0.00000
  in kB       0.16497    -0.36877     0.03883     0.00000     0.00000     0.00000

 VOLUME and BASIS-vectors are now :
  energy-cutoff  :      500.00
  volume of cell :      725.74
      direct lattice vectors                 reciprocal lattice vectors
     9.137188653 -0.000000000  0.000000000     0.109442854  0.000000000  0.000000000
     0.000000000  6.828004072  0.000000000     0.000000000  0.146455683  0.000000000
     0.000000000  0.000000000 11.632496310     0.000000000  0.000000000  0.085966071

  length of vectors
     9.137188653  6.828004072 11.632496310     0.109442854  0.146455683  0.085966071

 FORCES acting on ions
    electron-ion (+dipol)            ewald-force                    non-local-force                 convergence-correction
   0.234E+01 0.817E-04 0.762E+01   -.262E+01 0.137E-04 -.802E+01   0.279E+00 -.258E-18 0.391E+00   -.343E-04 -.524E-09 -.127E-04
   -.234E+01 0.687E-05 -.762E+01   0.262E+01 -.191E-04 0.802E+01   -.279E+00 0.656E-19 -.391E+00   0.343E-04 -.937E-09 0.127E-04
   -.234E+01 0.286E-05 0.762E+01   0.262E+01 -.191E-04 -.802E+01   -.279E+00 -.149E-17 0.391E+00   0.343E-04 -.110E-08 -.127E-04
   0.234E+01 0.777E-04 -.762E+01   -.262E+01 0.137E-04 0.802E+01   0.279E+00 -.635E-18 -.391E+00   -.343E-04 -.691E-09 0.127E-04
   -.224E+02 0.502E-05 -.446E+01   0.215E+02 -.175E-04 0.447E+01   0.938E+00 0.101E-17 -.165E-01   -.134E-04 -.131E-09 0.982E-05
   0.224E+02 0.792E-04 0.446E+01   -.215E+02 0.167E-04 -.447E+01   -.938E+00 -.699E-18 0.165E-01   0.134E-04 0.475E-09 -.982E-05
   0.224E+02 0.788E-04 -.446E+01   -.215E+02 0.167E-04 0.447E+01   -.938E+00 -.255E-17 -.165E-01   0.134E-04 0.443E-09 0.982E-05
   -.224E+02 0.458E-05 0.446E+01   0.215E+02 -.175E-04 -.447E+01   0.938E+00 -.186E-17 0.165E-01   -.134E-04 -.163E-09 -.983E-05
   0.583E+01 0.201E+02 -.116E+02   -.642E+01 -.215E+02 0.124E+02   0.578E+00 0.141E+01 -.776E+00   0.319E-05 0.310E-04 -.191E-04
   -.583E+01 -.201E+02 0.116E+02   0.642E+01 0.215E+02 -.124E+02   -.578E+00 -.141E+01 0.776E+00   -.319E-05 -.310E-04 0.191E-04
   -.583E+01 -.201E+02 -.116E+02   0.642E+01 0.215E+02 0.124E+02   -.578E+00 -.141E+01 -.776E+00   -.319E-05 -.310E-04 -.191E-04
   0.583E+01 0.201E+02 0.116E+02   -.642E+01 -.215E+02 -.124E+02   0.578E+00 0.141E+01 0.776E+00   0.319E-05 0.310E-04 0.191E-04
   -.583E+01 0.201E+02 0.116E+02   0.642E+01 -.215E+02 -.124E+02   -.578E+00 0.141E+01 0.776E+00   -.319E-05 0.310E-04 0.191E-04
   0.583E+01 -.201E+02 -.116E+02   -.642E+01 0.215E+02 0.124E+02   0.578E+00 -.141E+01 -.776E+00   0.319E-05 -.310E-04 -.191E-04
   0.583E+01 -.201E+02 0.116E+02   -.642E+01 0.215E+02 -.124E+02   0.578E+00 -.141E+01 0.776E+00   0.319E-05 -.310E-04 0.191E-04
   -.583E+01 0.201E+02 -.116E+02   0.642E+01 -.215E+02 0.124E+02   -.578E+00 0.141E+01 -.776E+00   -.319E-05 0.310E-04 -.191E-04
   0.323E+02 -.101E-04 0.191E+01   -.341E+02 -.785E-05 -.229E+01   0.182E+01 0.523E-17 0.396E+00   0.738E-05 0.299E-09 -.867E-05
   -.323E+02 0.458E-05 -.191E+01   0.341E+02 0.797E-05 0.229E+01   -.182E+01 0.540E-17 -.396E+00   -.738E-05 0.420E-09 0.867E-05
   -.323E+02 0.104E-04 0.191E+01   0.341E+02 0.797E-05 -.229E+01   -.182E+01 -.321E-17 0.396E+00   -.738E-05 0.385E-09 -.866E-05
   0.323E+02 -.425E-05 -.191E+01   -.341E+02 -.785E-05 0.229E+01   0.182E+01 -.313E-17 -.396E+00   0.738E-05 0.265E-09 0.867E-05
   0.277E+01 0.106E-05 0.227E+02   -.308E+01 0.853E-05 -.244E+02   0.285E+00 -.116E-17 0.169E+01   0.811E-05 0.210E-09 0.227E-04
   -.277E+01 -.133E-04 -.227E+02   0.308E+01 -.905E-05 0.244E+02   -.285E+00 -.126E-17 -.169E+01   -.811E-05 -.303E-10 -.227E-04
   -.277E+01 -.277E-06 0.227E+02   0.308E+01 -.905E-05 -.244E+02   -.285E+00 0.854E-18 0.169E+01   -.811E-05 -.102E-09 0.227E-04
   0.277E+01 0.141E-04 -.227E+02   -.308E+01 0.853E-05 0.244E+02   0.285E+00 -.425E-18 -.169E+01   0.811E-05 0.138E-09 -.227E-04
   -.315E-03 0.458E-03 0.113E-03   0.102E-13 -.137E-13 0.213E-13   0.000E+00 0.224E-15 -.222E-15   -.797E-09 0.205E-09 0.524E-09

 POSITION                                       TOTAL-FORCE (eV/Angst)
      0.14279      1.70700      8.03680         0.004316     -0.000000     -0.000228
      8.99440      5.12100      3.59569        -0.004316     -0.000000      0.000228
      4.42581      5.12100      2.22056        -0.004316     -0.000000     -0.000228
      4.71138      1.70700      9.41194         0.004316     -0.000000      0.000228
      1.42152      5.12100     10.54640         0.000940     -0.000000     -0.006623
      7.71567      1.70700      1.08609        -0.000940      0.000000      0.006623
      3.14708      1.70700      4.73015        -0.000940      0.000000     -0.006623
      5.99011      5.12100      6.90234         0.000940     -0.000000      0.006623
      1.74288      0.41725      1.73857         0.000217      0.003897      0.004995
      7.39431      6.41076      9.89393        -0.000217     -0.003897     -0.004995
      2.82571      6.41076      7.55482        -0.000217     -0.003897      0.004995
      6.31148      0.41725      4.07768         0.000217      0.003897     -0.004995
      7.39431      3.83125      9.89393        -0.000217      0.003897     -0.004995
      1.74288      2.99676      1.73857         0.000217     -0.003897      0.004995
      6.31148      2.99676      4.07768         0.000217     -0.003897     -0.004995
      2.82571      3.83125      7.55482        -0.000217      0.003897      0.004995
      0.67722      5.12100      6.90118         0.001966     -0.000000      0.000327
      8.45997      1.70700      4.73131        -0.001966     -0.000000     -0.000327
      3.89137      1.70700      1.08494        -0.001966     -0.000000      0.000327
      5.24582      5.12100     10.54756         0.001966      0.000000     -0.000327
      1.77799      1.70700     11.14053        -0.007045      0.000000      0.002470
      7.35920      5.12100      0.49196         0.007045     -0.000000     -0.002470
      2.79060      5.12100      5.32428         0.007045     -0.000000      0.002470
      6.34659      1.70700      6.30821        -0.007045      0.000000     -0.002470
    total drift:                               -0.000315      0.000458      0.000113

  FREE ENERGIE OF THE ION-ELECTRON SYSTEM (eV)
  free  energy   TOTEN  =      -104.17577057 eV

  energy  without entropy=     -104.17577057  energy(sigma->0) =     -104.17577057

 d Force = 0.1109975E-03[ 0.146E-04, 0.207E-03]  d Energy = 0.1317411E-03-0.207E-04
 d Force = 0.1910163E+00[ 0.190E+00, 0.192E+00]  d Ewald  =-0.1083929E+00 0.299E+00

 Conjugate gradient step on ions:
 trial-energy change:   -0.000132  1 .order   -0.000138   -0.000234   -0.000042
  (g-gl).g = 0.213E-03      g.g   = 0.197E-03  gl.gl    = 0.524E-03
 g(Force)  = 0.138E-03   g(Stress)= 0.583E-04 ortho     =-0.338E-04
 gamma     =   0.40615
 trial     =   1.28100
 opt step  =   1.64897  (harmonic =   1.55779) maximal distance =0.00149644
 next E    =  -104.175776   (d E  =  -0.00014)

 reached required accuracy - stopping structural energy minimisation
 writing wavefunctions
 BZINTS: Fermi energy:  2.868869;144.000000 electrons
         Band energy:-992.867595;  BLOECHL correction:  0.000000