 vasp.5.4.4.18Apr17-6-g9f103f2a35 (build Nov 21 2017 15:30:27) complex

 executed on             LinuxIFC date 2020.12.16  17:57:34

 INCAR:
 POTCAR:   PAW_PBE Ba_sv 06Sep2000
 POTCAR:   PAW_PBE Si 05Jan2001

 POTCAR:   PAW_PBE Ba_sv 06Sep2000
   VRHFIN =Ba: 5s5p6s

   TITEL  = PAW_PBE Ba_sv 06Sep2000
   POMASS =  137.327; ZVAL   =   10.000    mass and valenz
   ENMAX  =  187.210; ENMIN  =  140.408 eV
   QCUT   =   -3.709; QGAM   =    7.419    optimization parameters

   Description
     l     E      TYP  RCUT    TYP  RCUT
     0   .000     23  2.800
     0   .000     23  2.800
     1   .000     23  2.700
     1  2.000     23  2.700
     2   .000     23  2.700
     2   .000     23  2.700

 POTCAR:   PAW_PBE Si 05Jan2001
   VRHFIN =Si: s2p2

   TITEL  = PAW_PBE Si 05Jan2001
   POMASS =   28.085; ZVAL   =    4.000    mass and valenz
   ENMAX  =  245.345; ENMIN  =  184.009 eV
   QCUT   =   -4.246; QGAM   =    8.493    optimization parameters

   Description
     l     E      TYP  RCUT    TYP  RCUT
     0   .000     23  1.900
     0   .000     23  1.900
     1   .000     23  1.900
     1   .000     23  1.900
     2   .000      7  1.900

 Optimization of the real space projectors (new method)

 maximal supplied QI-value         = 13.42
 optimisation between [QCUT,QGAM] = [ 11.40, 22.81] = [ 36.42,145.68] Ry
 Optimized for a Real-space Cutoff    1.56 Angstroem

   l    n(q)    QCUT    max X(q) W(low)/X(q) W(high)/X(q)  e(spline)
   0     11    11.404     7.198    0.14E-04    0.26E-04    0.99E-07
   0     11    11.404    15.603    0.29E-04    0.72E-04    0.44E-06
   1     10    11.404     3.746    0.20E-04    0.24E-04    0.43E-07
   1     10    11.404     4.362    0.22E-03    0.97E-04    0.22E-06
   2     10    11.404     5.782    0.83E-04    0.62E-05    0.27E-06
   2     10    11.404    65.505    0.42E-03    0.31E-04    0.12E-05
 Optimization of the real space projectors (new method)

 maximal supplied QI-value         = 19.84
 optimisation between [QCUT,QGAM] = [ 11.31, 22.82] = [ 35.82,145.81] Ry
 Optimized for a Real-space Cutoff    1.16 Angstroem

   l    n(q)    QCUT    max X(q) W(low)/X(q) W(high)/X(q)  e(spline)
   0      8    11.310     8.708    0.14E-04    0.11E-04    0.43E-08
   0      8    11.310   106.241    0.27E-03    0.30E-03    0.38E-07
   1      7    11.310     5.901    0.82E-05    0.48E-04    0.19E-07
   1      7    11.310    73.241    0.27E-03    0.27E-03    0.74E-07
 PAW_PBE Ba_sv 06Sep2000                :
 PAW_PBE Si 05Jan2001                   :

 POSCAR: ba8 si16
  positions in cartesian coordinates
 exchange correlation table for  LEXCH =        8
   RHO(1)=    0.500       N(1)  =     2000
   RHO(2)=  100.500       N(2)  =     4000

 ion  position               nearest neighbor table
   1  0.015  0.250  0.691-  24 3.40  18 3.40  13 3.45  10 3.45  16 3.45  11 3.45  21 3.60  17 3.63
                            17 3.63   5 4.41   5 4.41   7 4.42   4 4.71   4 4.71
   2  0.985  0.750  0.309-  23 3.40  17 3.40   9 3.45  14 3.45  12 3.45  15 3.45  22 3.60  18 3.63
                            18 3.63   6 4.41   6 4.41   8 4.42   3 4.71   3 4.71
   3  0.485  0.750  0.191-  22 3.40  20 3.40  12 3.45  15 3.45   9 3.45  14 3.45  23 3.60  19 3.63
                            19 3.63   7 4.41   7 4.41   5 4.42   2 4.71   2 4.71
   4  0.515  0.250  0.809-  21 3.40  19 3.40  16 3.45  11 3.45  13 3.45  10 3.45  24 3.60  20 3.63
                            20 3.63   8 4.41   8 4.41   6 4.42   1 4.71   1 4.71
   5  0.159  0.750  0.907-  10 3.46  13 3.46  21 3.48  21 3.48  11 3.50  16 3.50  22 3.54   9 3.55
                            14 3.55  17 3.71  20 3.82   1 4.41   1 4.41   3 4.42
   6  0.841  0.250  0.093-  14 3.46   9 3.46  22 3.48  22 3.48  15 3.50  12 3.50  21 3.54  13 3.55
                            10 3.55  18 3.71  19 3.82   2 4.41   2 4.41   4 4.42
   7  0.341  0.250  0.407-  15 3.46  12 3.46  23 3.48  23 3.48  14 3.50   9 3.50  24 3.54  16 3.55
                            11 3.55  19 3.71  18 3.82   3 4.41   3 4.41   1 4.42
   8  0.659  0.750  0.593-  11 3.46  16 3.46  24 3.48  24 3.48  10 3.50  13 3.50  23 3.54  12 3.55
                            15 3.55  20 3.71  17 3.82   4 4.41   4 4.41   2 4.42
   9  0.194  0.073  0.147-  14 2.41  21 2.41  19 2.42   2 3.45   3 3.45   6 3.46   7 3.50   5 3.55

  10  0.806  0.927  0.853-  13 2.41  22 2.41  20 2.42   1 3.45   4 3.45   5 3.46   8 3.50   6 3.55

[...]

  24  0.698  0.250  0.533-  15 2.41  12 2.41  18 2.45   1 3.40   8 3.48   8 3.48   7 3.54   4 3.60

  LATTYP: Found a simple orthorhombic cell.
 ALAT       =     6.7778496742
 B/A-ratio  =     1.3292516818
 C/A-ratio  =     1.7117734747

  Lattice vectors:

 A1 = (   0.0000000000,  -6.7778496742,   0.0000000000)
 A2 = (  -9.0094680786,   0.0000000000,   0.0000000000)
 A3 = (   0.0000000000,   0.0000000000, -11.6021432877)

Analysis of symmetry for initial positions (statically):
 Subroutine PRICEL returns:
 Original cell was already a primitive cell.

 Routine SETGRP: Setting up the symmetry group for a
 simple orthorhombic supercell.

 Subroutine GETGRP returns: Found  8 space group operations
 (whereof  2 operations were pure point group operations)
 out of a pool of  8 trial point group operations.

The static configuration has the point symmetry S_2 .
 The point group associated with its full space group is D_2h.

Analysis of symmetry for dynamics (positions and initial velocities):
 Subroutine PRICEL returns:
 Original cell was already a primitive cell.

 Routine SETGRP: Setting up the symmetry group for a
 simple orthorhombic supercell.

 Subroutine GETGRP returns: Found  8 space group operations
 (whereof  2 operations were pure point group operations)
 out of a pool of  8 trial point group operations.

The dynamic configuration has the point symmetry S_2 .
 The point group associated with its full space group is D_2h.

 Subroutine INISYM returns: Found  8 space group operations
 (whereof  2 operations are pure point group operations),
 and found     1 'primitive' translations

 KPOINTS: k-density: 6.0

Automatic generation of k-mesh.
Space group operators:
 irot       det(A)        alpha          n_x          n_y          n_z        tau_x        tau_y        tau_z
    1     1.000000     0.000000     1.000000     0.000000     0.000000     0.000000     0.000000     0.000000
    2    -1.000000     0.000000     1.000000     0.000000     0.000000     0.000000     0.000000     0.000000
    3     1.000000   180.000000     0.000000     0.000000     1.000000    -0.500000     0.000000    -0.500000
    4    -1.000000   180.000000     0.000000     0.000000     1.000000    -0.500000     0.000000    -0.500000
    5     1.000000   180.000000     1.000000     0.000000     0.000000    -0.500000    -0.500000    -0.500000
    6    -1.000000   180.000000     1.000000     0.000000     0.000000    -0.500000    -0.500000    -0.500000
    7     1.000000   180.000000     0.000000     1.000000     0.000000    -0.000000    -0.500000    -0.000000
    8    -1.000000   180.000000     0.000000     1.000000     0.000000     0.000000    -0.500000     0.000000

 Subroutine IBZKPT returns following result:

 Found     36 irreducible k-points:

 Following reciprocal coordinates:
            Coordinates               Weight
  0.000000  0.000000  0.000000      1.000000
  0.200000  0.000000  0.000000      2.000000
  0.400000  0.000000  0.000000      2.000000
  0.000000  0.166667  0.000000      2.000000
  0.200000  0.166667  0.000000      4.000000
  0.400000  0.166667  0.000000      4.000000
  0.000000  0.333333  0.000000      2.000000
  0.200000  0.333333  0.000000      4.000000
  0.400000  0.333333  0.000000      4.000000
  0.000000  0.500000  0.000000      1.000000
  0.200000  0.500000  0.000000      2.000000
  0.400000  0.500000  0.000000      2.000000
  0.000000  0.000000  0.250000      2.000000
  0.200000  0.000000  0.250000      4.000000
  0.400000  0.000000  0.250000      4.000000
  0.000000  0.166667  0.250000      4.000000
  0.200000  0.166667  0.250000      8.000000
  0.400000  0.166667  0.250000      8.000000
  0.000000  0.333333  0.250000      4.000000
  0.200000  0.333333  0.250000      8.000000
  0.400000  0.333333  0.250000      8.000000
  0.000000  0.500000  0.250000      2.000000
  0.200000  0.500000  0.250000      4.000000
  0.400000  0.500000  0.250000      4.000000
  0.000000  0.000000  0.500000      1.000000
  0.200000  0.000000  0.500000      2.000000
  0.400000  0.000000  0.500000      2.000000
  0.000000  0.166667  0.500000      2.000000
  0.200000  0.166667  0.500000      4.000000
  0.400000  0.166667  0.500000      4.000000
  0.000000  0.333333  0.500000      2.000000
  0.200000  0.333333  0.500000      4.000000
  0.400000  0.333333  0.500000      4.000000
  0.000000  0.500000  0.500000      1.000000
  0.200000  0.500000  0.500000      2.000000
  0.400000  0.500000  0.500000      2.000000

 Following cartesian coordinates:
            Coordinates               Weight
  0.000000  0.000000  0.000000      1.000000
  0.022199  0.000000  0.000000      2.000000
  0.044398  0.000000  0.000000      2.000000
  0.000000  0.024590  0.000000      2.000000
  0.022199  0.024590  0.000000      4.000000
  0.044398  0.024590  0.000000      4.000000
  0.000000  0.049180  0.000000      2.000000
  0.022199  0.049180  0.000000      4.000000
  0.044398  0.049180  0.000000      4.000000
  0.000000  0.073770  0.000000      1.000000
  0.022199  0.073770  0.000000      2.000000
  0.044398  0.073770  0.000000      2.000000
  0.000000  0.000000  0.021548      2.000000
  0.022199  0.000000  0.021548      4.000000
  0.044398  0.000000  0.021548      4.000000
  0.000000  0.024590  0.021548      4.000000
  0.022199  0.024590  0.021548      8.000000
  0.044398  0.024590  0.021548      8.000000
  0.000000  0.049180  0.021548      4.000000
  0.022199  0.049180  0.021548      8.000000
  0.044398  0.049180  0.021548      8.000000
  0.000000  0.073770  0.021548      2.000000
  0.022199  0.073770  0.021548      4.000000
  0.044398  0.073770  0.021548      4.000000
  0.000000  0.000000  0.043095      1.000000
  0.022199  0.000000  0.043095      2.000000
  0.044398  0.000000  0.043095      2.000000
  0.000000  0.024590  0.043095      2.000000
  0.022199  0.024590  0.043095      4.000000
  0.044398  0.024590  0.043095      4.000000
  0.000000  0.049180  0.043095      2.000000
  0.022199  0.049180  0.043095      4.000000
  0.044398  0.049180  0.043095      4.000000
  0.000000  0.073770  0.043095      1.000000
  0.022199  0.073770  0.043095      2.000000
  0.044398  0.073770  0.043095      2.000000

 TETIRR: Found    360 inequivalent tetrahedra from      720

 SYSTEM =  unknown system
 POSCAR =  ba8 si16

 Startparameter for this run:
   NWRITE =      2    write-flag & timer
   PREC   = normal    normal or accurate (medium, high low for compatibility)
   ISTART =      0    job   : 0-new  1-cont  2-samecut
   ICHARG =      2    charge: 1-file 2-atom 10-const
   ISPIN  =      1    spin polarized calculation?
   LNONCOLLINEAR =      F non collinear calculations
   LSORBIT =      F    spin-orbit coupling
   INIWAV =      1    electr: 0-lowe 1-rand  2-diag
   LASPH  =      F    aspherical Exc in radial PAW
[...]

[...]

 d Force = 0.2124543E-02[ 0.411E-03, 0.384E-02]  d Energy = 0.2100088E-02 0.245E-04
 d Force =-0.1719858E+01[-0.173E+01,-0.171E+01]  d Ewald  = 0.2926271E+01-0.465E+01

 Steepest descent step on ions:
 trial-energy change:   -0.002100  1 .order   -0.002087   -0.004669    0.000495
  (g-gl).g = 0.467E-02      g.g   = 0.467E-02  gl.gl    = 0.000E+00
 g(Force)  = 0.384E-02   g(Stress)= 0.828E-03 ortho     = 0.000E+00
 gamma     =   0.00000
 trial     =   1.00000
 opt step  =   0.90543  (harmonic =   0.90414) maximal distance =0.00508214
 next E    =  -110.810540   (d E  =  -0.00212)

[...]

 d Force =-0.5230878E-04[-0.657E-04,-0.390E-04]  d Energy = 0.2767035E-04-0.800E-04
 d Force = 0.1637736E+00[ 0.164E+00, 0.164E+00]  d Ewald  =-0.2759234E+00 0.440E+00

[...]

 d Force = 0.1138693E-02[ 0.911E-03, 0.137E-02]  d Energy = 0.1475413E-02-0.337E-03
 d Force =-0.3090698E+00[-0.313E+00,-0.305E+00]  d Ewald  =-0.2517983E+01 0.221E+01

 Conjugate gradient step on ions:
 trial-energy change:   -0.001475  1 .order   -0.001474   -0.001763   -0.001184
  (g-gl).g = 0.186E-02      g.g   = 0.181E-02  gl.gl    = 0.467E-02
 g(Force)  = 0.112E-02   g(Stress)= 0.697E-03 ortho     =-0.422E-04
 gamma     =   0.39754
 trial     =   0.98109
 opt step  =   2.98805  (harmonic =   2.98805) maximal distance =0.00874448
 next E    =  -110.813230   (d E  =  -0.00269)

[...]

 d Force = 0.8361319E-03[-0.191E-03, 0.186E-02]  d Energy = 0.1043327E-02-0.207E-03
 d Force =-0.6585670E+00[-0.676E+00,-0.641E+00]  d Ewald  =-0.5170981E+01 0.451E+01

[...]

 d Force = 0.3909384E-03[-0.229E-04, 0.805E-03]  d Energy = 0.1029641E-02-0.639E-03
 d Force =-0.1273942E+01[-0.129E+01,-0.126E+01]  d Ewald  =-0.2519766E+01 0.125E+01

[...]

 d Force = 0.3568449E-03[ 0.318E-03, 0.396E-03]  d Energy = 0.3602576E-03-0.341E-05
 d Force = 0.3004308E-01[ 0.296E-01, 0.305E-01]  d Ewald  = 0.5069901E+00-0.477E+00

 Conjugate gradient step on ions:
 trial-energy change:   -0.000360  1 .order   -0.000375   -0.000419   -0.000330
  (g-gl).g = 0.352E-03      g.g   = 0.549E-03  gl.gl    = 0.233E-02
 g(Force)  = 0.524E-03   g(Stress)= 0.258E-04 ortho     = 0.141E-04
 gamma     =   0.15082
 trial     =   0.76061
 opt step  =   3.04246  (harmonic =   3.57779) maximal distance =0.00596356
 next E    =  -110.816054   (d E  =  -0.00099)

[...]

 d Force = 0.4483608E-03[-0.559E-04, 0.953E-03]  d Energy = 0.4030884E-03 0.453E-04
 d Force = 0.8440654E-01[ 0.803E-01, 0.885E-01]  d Ewald  = 0.1515614E+01-0.143E+01

[...]

 d Force =-0.3353090E-05[-0.151E-04, 0.839E-05]  d Energy = 0.1399518E-04-0.173E-04
 d Force =-0.1222214E-01[-0.123E-01,-0.121E-01]  d Ewald  =-0.2269925E+00 0.215E+00

[...]

 Conjugate gradient step on ions:
 trial-energy change:   -0.000109  1 .order   -0.000110   -0.000131   -0.000090
  (g-gl).g = 0.893E-04      g.g   = 0.106E-03  gl.gl    = 0.250E-03
 g(Force)  = 0.790E-04   g(Stress)= 0.275E-04 ortho     = 0.217E-05
 gamma     =   0.35658
 trial     =   1.22313
 opt step  =   3.86979  (harmonic =   3.86979) maximal distance =0.00356571
 next E    =  -110.816245   (d E  =  -0.00021)

[...]

 d Force = 0.1495350E-03[ 0.951E-04, 0.204E-03]  d Energy = 0.8005240E-04 0.695E-04
 d Force =-0.7251653E-01[-0.737E-01,-0.713E-01]  d Ewald  =-0.1602956E+01 0.153E+01

[...]

 d Force = 0.2849195E-04[ 0.209E-04, 0.361E-04]  d Energy = 0.4472763E-04-0.162E-04
 d Force =-0.6536928E-01[-0.654E-01,-0.653E-01]  d Ewald  = 0.8077758E-01-0.146E+00

 Conjugate gradient step on ions:
 trial-energy change:   -0.000045  1 .order   -0.000043   -0.000051   -0.000035
  (g-gl).g = 0.273E-03      g.g   = 0.251E-03  gl.gl    = 0.106E-03
 g(Force)  = 0.712E-04   g(Stress)= 0.180E-03 ortho     =-0.714E-05
 gamma     =   2.56209
 trial     =   0.22131
 opt step  =   0.70902  (harmonic =   0.70902) maximal distance =0.00183388
 next E    =  -110.816308   (d E  =  -0.00008)

 real space projection operators:
  max/ min on nodes  :       1121.44       1033.00

[...]

 eigenvalue-minimisations  :  8888
 total energy-change (2. order) : 0.2533097E-05  (-0.3018256E-05)
 number of electron     143.9999988 magnetization
 augmentation part      -17.6102664 magnetization

 Broyden mixing:
  rms(total) = 0.52807E-03    rms(broyden)= 0.52806E-03
  rms(prec ) = 0.68085E-03
  weight for this iteration     100.00

 eigenvalues of (default mixing * dielectric matrix)
  average eigenvalue GAMMA=   1.4480
  1.0024  1.8936

[...]

--------------------------------------- Iteration     16(   4)  ---------------------------------------

 BZINTS: Fermi energy:  3.479914;144.000000 electrons
         Band energy:-856.215054;  BLOECHL correction:  0.000000

 eigenvalue-minimisations  :  5488
 total energy-change (2. order) :-0.2152710E-06  (-0.3644106E-06)
 number of electron     143.9999988 magnetization
 augmentation part      -17.6102664 magnetization

 Free energy of the ion-electron system (eV)
  alpha Z        PSCENC =       453.42724733
  Ewald energy   TEWEN  =     -6365.94434522
  -Hartree energ DENC   =      -932.33126547
  -exchange      EXHF   =         0.00000000
  -V(xc)+E(xc)   XCENC  =        53.56272608
  PAW double counting   =      3850.72833582    -3564.90371894
  entropy T*S    EENTRO =         0.00000000
  eigenvalues    EBANDS =      -856.21505411
  atomic energy  EATOM  =      7250.85976021
  Solvation  Ediel_sol  =         0.00000000
  free energy    TOTEN  =      -110.81631432 eV

  energy without entropy =     -110.81631432  energy(sigma->0) =     -110.81631432

 average (electrostatic) potential at core
  the test charge radii are     1.2192  0.9892
  (the norm of the test charge is              1.0000)
       1 -36.4056       2 -36.4056       3 -36.4056       4 -36.4056       5 -36.4866
       6 -36.4866       7 -36.4866       8 -36.4866       9 -85.2160      10 -85.2160
      11 -85.2160      12 -85.2160      13 -85.2160      14 -85.2160      15 -85.2160
      16 -85.2160      17 -85.2700      18 -85.2700      19 -85.2700      20 -85.2700
      21 -85.1812      22 -85.1812      23 -85.1812      24 -85.1812

 E-fermi :   3.4799     XC(G=0):  -8.7980     alpha+bet :-10.2283

[...]

 k-point    36 :       0.4000    0.5000    0.5000
  band No.  band energies     occupation
      1     -24.1439      2.00000
      2     -24.1439      2.00000
      3     -24.1438      2.00000
      4     -24.1438      2.00000
      5     -24.0864      2.00000
      6     -24.0864      2.00000
      7     -24.0841      2.00000
      8     -24.0841      2.00000
      9      -9.7005      2.00000
     10      -9.7005      2.00000
     11      -9.6823      2.00000
     12      -9.6823      2.00000
     13      -9.6313      2.00000
     14      -9.6313      2.00000
     15      -9.6173      2.00000
     16      -9.6173      2.00000
     17      -9.5091      2.00000
     18      -9.5091      2.00000
     19      -9.4693      2.00000
     20      -9.4693      2.00000
     21      -9.4203      2.00000
     22      -9.4203      2.00000
     23      -9.4120      2.00000
     24      -9.4120      2.00000
     25      -9.3716      2.00000
     26      -9.3716      2.00000
     27      -9.3610      2.00000
     28      -9.3610      2.00000
     29      -9.3415      2.00000
     30      -9.3415      2.00000
     31      -9.3397      2.00000
     32      -9.3397      2.00000
     33      -7.0903      2.00000
     34      -7.0903      2.00000
     35      -7.0875      2.00000
     36      -7.0875      2.00000
     37      -2.6360      2.00000
     38      -2.6360      2.00000
     39      -2.5405      2.00000
     40      -2.5405      2.00000
     41      -2.2377      2.00000
     42      -2.2377      2.00000
     43      -2.2084      2.00000
     44      -2.2084      2.00000
     45      -2.1085      2.00000
     46      -2.1085      2.00000
     47      -2.0498      2.00000
     48      -2.0498      2.00000
     49       1.0361      2.00000
     50       1.0361      2.00000
     51       1.1206      2.00000
     52       1.1206      2.00000
     53       1.5633      2.00000
     54       1.5633      2.00000
     55       1.7179      2.00000
     56       1.7179      2.00000
     57       1.9003      2.00000
     58       1.9004      2.00000
     59       1.9913      2.00000
     60       1.9913      2.00000
[...]
     74       4.3507      0.00000
     75       4.5206      0.00000
     76       4.5206      0.00000
     77       4.6622      0.00000
     78       4.6622      0.00000
     79       4.9163      0.00000
     80       4.9163      0.00000
     81       5.3597      0.00000
     82       5.3597      0.00000
     83       5.5486      0.00000
     84       5.5486      0.00000
     85       5.8378      0.00000
     86       5.8378      0.00000
     87       5.9634      0.00000
     88       5.9634      0.00000

 soft charge-density along one line, spin component           1
         0         1         2         3         4         5         6         7         8         9
 total charge-density along one line

------------------------ aborting loop because EDIFF is reached ----------------------------------------

  FORCE on cell =-STRESS in cart. coord.  units (eV):
  Direction    XX          YY          ZZ          XY          YZ          ZX
  Alpha Z   453.42725   453.42725   453.42725
  Ewald   -2141.46716 -2117.56221 -2106.93288    -0.00000    -0.00000    -0.00015
  Hartree   299.12714   315.96438   317.23927     0.00000    -0.00000     0.00002
  E(xc)    -464.11266  -464.05833  -463.98931    -0.00000    -0.00000    -0.00000
  Local     125.99777    91.56099    80.00638     0.00000     0.00000     0.00010
  n-local   344.33947   341.49177   342.23397    -0.09694    -0.05391    -0.14218
  augment  -169.39703  -168.40409  -168.62618    -0.00000    -0.00000    -0.00000
  Kinetic  1551.98168  1547.47459  1546.56849     0.58019    -0.73620    -0.05265
  Fock        0.00000     0.00000     0.00000     0.00000     0.00000     0.00000
  Total      -0.10354    -0.10566    -0.07303     0.00000     0.00000     0.00000
  in kB      -0.23371    -0.23851    -0.16485     0.00000     0.00000     0.00000

 VOLUME and BASIS-vectors are now :
  energy-cutoff  :      500.00
  volume of cell :      709.78
      direct lattice vectors                 reciprocal lattice vectors
     9.054805467 -0.000000000  0.000000000     0.110438596 -0.000000000  0.000000000
     0.000000000  6.764394516  0.000000000     0.000000000  0.147832891  0.000000000
     0.000000000  0.000000000 11.588124653     0.000000000  0.000000000  0.086295240

  length of vectors
     9.054805467  6.764394516 11.588124653     0.110438596  0.147832891  0.086295240

 FORCES acting on ions
    electron-ion (+dipol)            ewald-force                    non-local-force                 convergence-correction
   0.227E+01 0.815E-04 0.240E+01   -.262E+01 0.137E-04 -.279E+01   0.352E+00 -.476E-18 0.387E+00   -.304E-04 -.740E-09 -.174E-03
   -.227E+01 0.918E-05 -.240E+01   0.262E+01 -.195E-04 0.279E+01   -.352E+00 -.146E-17 -.387E+00   0.304E-04 -.608E-09 0.174E-03
   -.227E+01 0.484E-05 0.240E+01   0.262E+01 -.195E-04 -.279E+01   -.352E+00 0.889E-19 0.387E+00   0.304E-04 -.615E-09 -.174E-03
   0.227E+01 0.771E-04 -.240E+01   -.262E+01 0.137E-04 0.279E+01   0.352E+00 -.346E-18 -.387E+00   -.304E-04 -.748E-09 0.174E-03
   -.246E+02 0.768E-05 -.538E+01   0.236E+02 -.175E-04 0.543E+01   0.936E+00 -.971E-18 -.542E-01   0.306E-03 -.250E-08 -.832E-05
   0.246E+02 0.797E-04 0.538E+01   -.236E+02 0.168E-04 -.543E+01   -.936E+00 0.660E-18 0.542E-01   -.306E-03 -.171E-08 0.831E-05
   0.246E+02 0.774E-04 -.538E+01   -.236E+02 0.168E-04 0.543E+01   -.936E+00 0.463E-18 -.542E-01   -.306E-03 -.706E-09 -.827E-05
   -.246E+02 0.541E-05 0.538E+01   0.236E+02 -.175E-04 -.543E+01   0.936E+00 0.273E-18 0.542E-01   0.306E-03 -.150E-08 0.828E-05
   0.103E+02 0.325E+02 -.182E+02   -.107E+02 -.336E+02 0.189E+02   0.413E+00 0.112E+01 -.704E+00   0.104E-03 0.264E-03 -.990E-04
   -.103E+02 -.325E+02 0.182E+02   0.107E+02 0.336E+02 -.189E+02   -.413E+00 -.112E+01 0.704E+00   -.104E-03 -.264E-03 0.990E-04
   -.103E+02 -.325E+02 -.182E+02   0.107E+02 0.336E+02 0.189E+02   -.413E+00 -.112E+01 -.704E+00   -.104E-03 -.264E-03 -.990E-04
   0.103E+02 0.325E+02 0.182E+02   -.107E+02 -.336E+02 -.189E+02   0.413E+00 0.112E+01 0.704E+00   0.104E-03 0.264E-03 0.990E-04
   -.103E+02 0.325E+02 0.182E+02   0.107E+02 -.336E+02 -.189E+02   -.413E+00 0.112E+01 0.704E+00   -.104E-03 0.264E-03 0.990E-04
   0.103E+02 -.325E+02 -.182E+02   -.107E+02 0.336E+02 0.189E+02   0.413E+00 -.112E+01 -.704E+00   0.104E-03 -.264E-03 -.990E-04
   0.103E+02 -.325E+02 0.182E+02   -.107E+02 0.336E+02 -.189E+02   0.413E+00 -.112E+01 0.704E+00   0.104E-03 -.264E-03 0.990E-04
   -.103E+02 0.325E+02 -.182E+02   0.107E+02 -.336E+02 0.189E+02   -.413E+00 0.112E+01 -.704E+00   -.104E-03 0.264E-03 -.990E-04
   0.461E+02 -.120E-04 0.764E+00   -.478E+02 -.760E-05 -.156E+01   0.171E+01 0.115E-16 0.806E+00   0.108E-03 0.165E-08 -.438E-04
   -.461E+02 -.568E-06 -.764E+00   0.478E+02 0.790E-05 0.156E+01   -.171E+01 0.951E-17 -.806E+00   -.108E-03 0.272E-09 0.438E-04
   -.461E+02 0.710E-05 0.764E+00   0.478E+02 0.790E-05 -.156E+01   -.171E+01 -.530E-17 0.806E+00   -.108E-03 0.287E-09 -.438E-04
   0.461E+02 -.435E-05 -.764E+00   -.478E+02 -.760E-05 0.156E+01   0.171E+01 -.544E-17 -.806E+00   0.108E-03 0.166E-08 0.438E-04
   0.789E+01 -.372E-05 0.371E+02   -.779E+01 0.851E-05 -.385E+02   -.104E+00 -.842E-18 0.136E+01   0.170E-03 0.362E-09 0.190E-03
   -.789E+01 -.145E-04 -.371E+02   0.779E+01 -.886E-05 0.385E+02   0.104E+00 -.422E-18 -.136E+01   -.170E-03 0.384E-09 -.190E-03
   -.789E+01 -.424E-06 0.371E+02   0.779E+01 -.886E-05 -.385E+02   0.104E+00 0.426E-17 0.136E+01   -.170E-03 -.934E-09 0.190E-03
   0.789E+01 0.103E-04 -.371E+02   -.779E+01 0.851E-05 0.385E+02   -.104E+00 0.371E-17 -.136E+01   0.170E-03 -.956E-09 -.190E-03
   -.276E-03 0.400E-03 0.618E-04   0.107E-13 0.334E-13 0.213E-13   0.000E+00 0.239E-15 -.222E-15   0.495E-09 -.944E-08 -.283E-09

 POSITION                                       TOTAL-FORCE (eV/Angst)
      0.12709      1.69110      8.01185        -0.001024      0.000000      0.001049
      8.92772      5.07330      3.57628         0.001024     -0.000000     -0.001049
      4.40031      5.07330      2.21778         0.001024      0.000000      0.001049
      4.65449      1.69110      9.37034        -0.001024     -0.000000     -0.001049
      1.42314      5.07330     10.50065         0.002870      0.000000     -0.001254
      7.63167      1.69110      1.08748        -0.002870      0.000000      0.001254
      3.10426      1.69110      4.70658        -0.002870     -0.000000     -0.001254
      5.95054      5.07330      6.88154         0.002870      0.000000      0.001254
      1.75328      0.48768      1.69395        -0.000793     -0.004022      0.002552
      7.30152      6.27672      9.89417         0.000793      0.004022     -0.002552
      2.77412      6.27672      7.48802         0.000793      0.004022      0.002552
      6.28069      0.48768      4.10011        -0.000793     -0.004022     -0.002552
      7.30152      3.86987      9.89417         0.000793     -0.004022     -0.002552
      1.75328      2.89452      1.69395        -0.000793      0.004022      0.002552
      6.28069      2.89452      4.10011        -0.000793      0.004022     -0.002552
      2.77412      3.86987      7.48802         0.000793     -0.004022      0.002552
      0.77634      5.07330      6.84374         0.007080     -0.000000      0.006740
      8.27847      1.69110      4.74438        -0.007080      0.000000     -0.006740
      3.75107      1.69110      1.04968        -0.007080      0.000000      0.006740
      5.30374      5.07330     10.53845         0.007080     -0.000000     -0.006740
      1.78294      1.69110     11.19672        -0.002640      0.000000     -0.004049
      7.27186      5.07330      0.39140         0.002640      0.000000      0.004049
      2.74446      5.07330      5.40266         0.002640      0.000000     -0.004049
      6.31034      1.69110      6.18547        -0.002640     -0.000000      0.004049
    total drift:                               -0.000276      0.000400      0.000062

  FREE ENERGIE OF THE ION-ELECTRON SYSTEM (eV)
  free  energy   TOTEN  =      -110.81631432 eV

  energy  without entropy=     -110.81631432  energy(sigma->0) =     -110.81631432

 d Force = 0.2277873E-04[-0.413E-06, 0.460E-04]  d Energy = 0.4390248E-04-0.211E-04
 d Force =-0.1445892E+00[-0.145E+00,-0.144E+00]  d Ewald  = 0.1775192E+00-0.322E+00

 reached required accuracy - stopping structural energy minimisation
 writing wavefunctions
 BZINTS: Fermi energy:  3.479914;144.000000 electrons
         Band energy:-856.215054;  BLOECHL correction:  0.000000