 vasp.5.4.4.18Apr17-6-g9f103f2a35 (build Nov 21 2017 15:30:27) complex

 executed on             LinuxIFC date 2020.11.09  12:17:45

 INCAR:
 POTCAR:   PAW_PBE Ba_sv 06Sep2000
 POTCAR:   PAW_PBE Si 05Jan2001

 POTCAR:   PAW_PBE Ba_sv 06Sep2000
   VRHFIN =Ba: 5s5p6s

   TITEL  = PAW_PBE Ba_sv 06Sep2000
   POMASS =  137.327; ZVAL   =   10.000    mass and valenz
   ENMAX  =  187.210; ENMIN  =  140.408 eV
   QCUT   =   -3.709; QGAM   =    7.419    optimization parameters

   Description
     l     E      TYP  RCUT    TYP  RCUT
     0   .000     23  2.800
     0   .000     23  2.800
     1   .000     23  2.700
     1  2.000     23  2.700
     2   .000     23  2.700
     2   .000     23  2.700

 POTCAR:   PAW_PBE Si 05Jan2001
   VRHFIN =Si: s2p2

   TITEL  = PAW_PBE Si 05Jan2001
   POMASS =   28.085; ZVAL   =    4.000    mass and valenz
   ENMAX  =  245.345; ENMIN  =  184.009 eV
   QCUT   =   -4.246; QGAM   =    8.493    optimization parameters

   Description
     l     E      TYP  RCUT    TYP  RCUT
     0   .000     23  1.900
     0   .000     23  1.900
     1   .000     23  1.900
     1   .000     23  1.900
     2   .000      7  1.900

 Optimization of the real space projectors (new method)

 maximal supplied QI-value         = 13.42
 optimisation between [QCUT,QGAM] = [ 11.40, 22.81] = [ 36.42,145.68] Ry
 Optimized for a Real-space Cutoff    1.56 Angstroem

   l    n(q)    QCUT    max X(q) W(low)/X(q) W(high)/X(q)  e(spline)
   0     11    11.404     7.198    0.14E-04    0.26E-04    0.99E-07
   0     11    11.404    15.603    0.29E-04    0.72E-04    0.44E-06
   1     10    11.404     3.746    0.20E-04    0.24E-04    0.43E-07
   1     10    11.404     4.362    0.22E-03    0.97E-04    0.22E-06
   2     10    11.404     5.782    0.83E-04    0.62E-05    0.27E-06
   2     10    11.404    65.505    0.42E-03    0.31E-04    0.12E-05
 Optimization of the real space projectors (new method)

 maximal supplied QI-value         = 19.84
 optimisation between [QCUT,QGAM] = [ 11.31, 22.82] = [ 35.82,145.81] Ry
 Optimized for a Real-space Cutoff    1.16 Angstroem

   l    n(q)    QCUT    max X(q) W(low)/X(q) W(high)/X(q)  e(spline)
   0      8    11.310     8.708    0.14E-04    0.11E-04    0.43E-08
   0      8    11.310   106.241    0.27E-03    0.30E-03    0.38E-07
   1      7    11.310     5.901    0.82E-05    0.48E-04    0.19E-07
   1      7    11.310    73.241    0.27E-03    0.27E-03    0.74E-07

 PAW_PBE Ba_sv 06Sep2000                :
 PAW_PBE Si 05Jan2001                   :

 POSCAR: ba8 si16
  positions in direct lattice
  velocities in cartesian coordinates
 exchange correlation table for  LEXCH =       43
   RHO(1)=    0.500       N(1)  =     2000
   RHO(2)=  100.500       N(2)  =     4000

 ion  position               nearest neighbor table
   1  0.010  0.260  0.710-  41 3.27  19 3.33  24 3.33  33 3.48  33 3.48   9 4.42   9 4.42  11 4.46
                             4 4.52
   2  0.536  0.760  0.309-  42 3.27  28 3.33  31 3.33  34 3.48  34 3.48  10 4.42  10 4.42  16 4.46
                             7 4.52
   3  0.129  0.760  0.202-  36 3.40  20 3.42  23 3.42  17 3.42  22 3.42  46 3.47  35 3.59  35 3.60
                            43 3.60   9 3.93  11 4.21  11 4.21
   4  0.142  0.260  0.819-  35 3.27  24 3.41  19 3.41  26 3.44  29 3.44  44 3.49  41 3.50  36 3.57
                            36 3.57  12 4.31  14 4.31  12 4.31   9 4.44   9 4.44   1 4.52   5 4.69
   5  0.278  0.260  0.699-  38 3.35  26 3.36  29 3.37  44 3.38  27 3.41  32 3.41  45 3.49  37 3.56
                            37 3.56  13 4.35  13 4.35  15 4.36   4 4.69  12 4.74  12 4.74
   6  0.268  0.760  0.320-  37 3.35  25 3.36  30 3.37  47 3.38  20 3.41  23 3.41  46 3.49  38 3.56
                            38 3.56  14 4.35  14 4.35  12 4.36   7 4.69  15 4.74  15 4.74
   7  0.404  0.760  0.200-  40 3.27  31 3.41  28 3.41  25 3.44  30 3.44  47 3.49  42 3.50  39 3.57
                            39 3.57  15 4.31  13 4.31  15 4.31  10 4.44  10 4.44   2 4.52   6 4.69
   8  0.416  0.260  0.817-  39 3.40  27 3.42  32 3.42  18 3.42  21 3.42  45 3.47  40 3.59  40 3.60
                            48 3.60  10 3.93  16 4.21  16 4.21
   9  0.060  0.760  0.922-  36 3.37  41 3.38  41 3.39  19 3.41  24 3.41  17 3.43  22 3.43  33 3.60
                             3 3.93   1 4.42   1 4.42   4 4.44   4 4.44
  10  0.486  0.260  0.097-  39 3.37  42 3.38  42 3.39  28 3.41  31 3.41  18 3.43  21 3.43  34 3.60
                             8 3.93   2 4.42   2 4.42   7 4.44   7 4.44
  11  0.095  0.260  0.405-  20 3.35  23 3.35  17 3.42  22 3.42  43 3.49  43 3.49  44 3.51  19 3.53
                            24 3.53  35 3.60   3 4.21   3 4.21   1 4.46
  12  0.180  0.760  0.606-  44 3.40  44 3.41  19 3.41  24 3.41  29 3.46  26 3.46  20 3.49  23 3.49
                            36 3.61  37 3.83  43 3.91   4 4.31   4 4.31   6 4.36   5 4.74   5 4.74
  13  0.318  0.760  0.916-  45 3.39  45 3.39  29 3.43  26 3.43  32 3.45  27 3.45  25 3.46  30 3.46
                            46 3.56  37 3.65  40 3.85   7 4.31   5 4.35   5 4.35
  14  0.228  0.260  0.103-  46 3.39  46 3.39  30 3.43  25 3.43  23 3.45  20 3.45  26 3.46  29 3.46
                            45 3.56  38 3.65  35 3.85   4 4.31   6 4.35   6 4.35
  15  0.365  0.260  0.413-  47 3.40  47 3.41  28 3.41  31 3.41  30 3.46  25 3.46  27 3.49  32 3.49
                            39 3.61  38 3.83  48 3.91   7 4.31   7 4.31   5 4.36   6 4.74   6 4.74
  16  0.451  0.760  0.614-  27 3.35  32 3.35  18 3.42  21 3.42  48 3.49  48 3.49  47 3.51  28 3.53
                            31 3.53  40 3.60   8 4.21   8 4.21   2 4.46
  17  0.050  0.080  0.156-  22 2.39  41 2.41  35 2.48  11 3.42   3 3.42   9 3.43
  18  0.496  0.940  0.862-  21 2.39  42 2.41  40 2.48  16 3.42   8 3.42  10 3.43
  19  0.085  0.940  0.651-  24 2.39  43 2.43  33 2.44   1 3.33   9 3.41  12 3.41   4 3.41  11 3.53

  20  0.189  0.078  0.363-  44 2.41  23 2.41  38 2.42  11 3.35   6 3.41   3 3.42  14 3.45  12 3.49

[...]

  48  0.474  0.260  0.549-  31 2.43  28 2.43  34 2.44  16 3.49  16 3.49   8 3.60  15 3.91

  LATTYP: Found a simple orthorhombic cell.
 ALAT       =     6.6440629519
 B/A-ratio  =     1.7139625822
 C/A-ratio  =     4.9696904434

  Lattice vectors:

 A1 = (   0.0000000000,   6.6440629519,   0.0000000000)
 A2 = (   0.0000000000,   0.0000000000, -11.3876752935)
 A3 = ( -33.0189361572,   0.0000000000,   0.0000000000)

Analysis of symmetry for initial positions (statically):
 Subroutine PRICEL returns:
 Original cell was already a primitive cell.

 Routine SETGRP: Setting up the symmetry group for a
 simple orthorhombic supercell.

 Subroutine GETGRP returns: Found  2 space group operations
 (whereof  1 operations were pure point group operations)
 out of a pool of  8 trial point group operations.

The static configuration has the point symmetry C_1 .
 The point group associated with its full space group is S_2 .

Analysis of symmetry for dynamics (positions and initial velocities):
 Subroutine PRICEL returns:
 Original cell was already a primitive cell.

 Routine SETGRP: Setting up the symmetry group for a
 simple orthorhombic supercell.

 Subroutine GETGRP returns: Found  2 space group operations
 (whereof  1 operations were pure point group operations)
 out of a pool of  8 trial point group operations.

The dynamic configuration has the point symmetry C_1 .
 The point group associated with its full space group is S_2 .

 Subroutine INISYM returns: Found  2 space group operations
 (whereof  1 operations are pure point group operations),
 and found     1 'primitive' translations

 KPOINTS: k-density: 8.0

Automatic generation of k-mesh.
Space group operators:
 irot       det(A)        alpha          n_x          n_y          n_z        tau_x        tau_y        tau_z
    1     1.000000     0.000000     1.000000     0.000000     0.000000     0.000000     0.000000     0.000000
    2    -1.000000     0.000000     1.000000     0.000000     0.000000    -0.454285     0.020136    -0.981167

 Subroutine IBZKPT returns following result:

 Found     21 irreducible k-points:

 Following reciprocal coordinates:
            Coordinates               Weight
  0.000000  0.000000  0.000000      1.000000
  0.000000  0.125000  0.000000      2.000000
  0.000000  0.250000  0.000000      2.000000
  0.000000  0.375000  0.000000      2.000000
  0.000000  0.500000  0.000000      1.000000
  0.000000  0.000000  0.200000      2.000000
  0.000000  0.125000  0.200000      2.000000
  0.000000  0.250000  0.200000      2.000000
  0.000000  0.375000  0.200000      2.000000
  0.000000  0.500000  0.200000      2.000000
  0.000000 -0.375000  0.200000      2.000000
  0.000000 -0.250000  0.200000      2.000000
  0.000000 -0.125000  0.200000      2.000000
  0.000000  0.000000  0.400000      2.000000
  0.000000  0.125000  0.400000      2.000000
  0.000000  0.250000  0.400000      2.000000
  0.000000  0.375000  0.400000      2.000000
  0.000000  0.500000  0.400000      2.000000
  0.000000 -0.375000  0.400000      2.000000
  0.000000 -0.250000  0.400000      2.000000
  0.000000 -0.125000  0.400000      2.000000

 Following cartesian coordinates:
            Coordinates               Weight
  0.000000  0.000000  0.000000      1.000000
  0.000000  0.018814  0.000000      2.000000
  0.000000  0.037628  0.000000      2.000000
  0.000000  0.056441  0.000000      2.000000
  0.000000  0.075255  0.000000      1.000000
  0.000000  0.000000  0.017563      2.000000
  0.000000  0.018814  0.017563      2.000000
  0.000000  0.037628  0.017563      2.000000
  0.000000  0.056441  0.017563      2.000000
  0.000000  0.075255  0.017563      2.000000
  0.000000 -0.056441  0.017563      2.000000
  0.000000 -0.037628  0.017563      2.000000
  0.000000 -0.018814  0.017563      2.000000
  0.000000  0.000000  0.035126      2.000000
  0.000000  0.018814  0.035126      2.000000
  0.000000  0.037628  0.035126      2.000000
  0.000000  0.056441  0.035126      2.000000
  0.000000  0.075255  0.035126      2.000000
  0.000000 -0.056441  0.035126      2.000000
  0.000000 -0.037628  0.035126      2.000000
  0.000000 -0.018814  0.035126      2.000000

 TETIRR: Found    118 inequivalent tetrahedra from      240

 SYSTEM =  unknown system
 POSCAR =  ba8 si16

 Startparameter for this run:
   NWRITE =      2    write-flag & timer
   PREC   = normal    normal or accurate (medium, high low for compatibility)
   ISTART =      0    job   : 0-new  1-cont  2-samecut
   ICHARG =     11    charge: 1-file 2-atom 10-const
   ISPIN  =      1    spin polarized calculation?
   LNONCOLLINEAR =      F non collinear calculations
   LSORBIT =      F    spin-orbit coupling
   INIWAV =      1    electr: 0-lowe 1-rand  2-diag
   LASPH  =      T    aspherical Exc in radial PAW
   METAGGA=      F    non-selfconsistent MetaGGA calc.

 Electronic Relaxation 1
   ENCUT  =  500.0 eV  36.75 Ry    6.06 a.u.  60.20 12.11 20.76*2*pi/ulx,y,z
   ENINI  =  500.0     initial cutoff
   ENAUG  =  351.2 eV  augmentation charge cutoff
   NELM   =    100;   NELMIN=  2; NELMDL= -5     # of ELM steps
   EDIFF  = 0.1E-05   stopping-criterion for ELM
   LREAL  =      T    real-space projection
   NLSPLINE    = F    spline interpolate recip. space projectors
[...]
    2        2.019   5.567   0.314   7.900
    3        2.018   5.584   0.319   7.920
    4        2.018   5.587   0.328   7.934
    5        2.017   5.588   0.330   7.935
    6        2.017   5.588   0.330   7.935
    7        2.018   5.587   0.328   7.934
    8        2.018   5.584   0.319   7.920
    9        2.016   5.577   0.337   7.930
   10        2.016   5.577   0.337   7.930
   11        2.012   5.576   0.337   7.925
   12        2.011   5.578   0.326   7.915
   13        2.011   5.578   0.332   7.921
   14        2.011   5.578   0.332   7.921
   15        2.011   5.578   0.326   7.915
   16        2.012   5.576   0.337   7.925
   17        0.829   0.807   0.000   1.636
   18        0.829   0.807   0.000   1.636
   19        0.798   0.867   0.000   1.666
   20        0.804   0.862   0.000   1.666
   21        0.829   0.807   0.000   1.636
   22        0.829   0.807   0.000   1.636
   23        0.804   0.863   0.000   1.666
   24        0.798   0.868   0.000   1.666
   25        0.803   0.863   0.000   1.666
   26        0.803   0.863   0.000   1.666
   27        0.804   0.862   0.000   1.666
   28        0.798   0.868   0.000   1.666
   29        0.803   0.863   0.000   1.666
   30        0.803   0.863   0.000   1.666
   31        0.798   0.868   0.000   1.666
   32        0.804   0.863   0.000   1.666
   33        0.816   0.812   0.000   1.627
   34        0.816   0.812   0.000   1.627
   35        0.806   0.825   0.000   1.631
   36        0.808   0.838   0.000   1.645
   37        0.817   0.816   0.000   1.634
   38        0.817   0.816   0.000   1.634
   39        0.808   0.838   0.000   1.645
   40        0.806   0.825   0.000   1.631
   41        0.787   0.875   0.000   1.662
   42        0.787   0.875   0.000   1.662
   43        0.823   0.801   0.000   1.624
   44        0.802   0.860   0.000   1.663
   45        0.803   0.857   0.000   1.660
   46        0.803   0.857   0.000   1.660
   47        0.802   0.860   0.000   1.663
   48        0.823   0.801   0.000   1.624
tot         58.105 116.237   5.247 179.589

  FORCE on cell =-STRESS in cart. coord.  units (eV):
  Direction    XX          YY          ZZ          XY          YZ          ZX
  Alpha Z   515.29618   515.29618   515.29618
  Ewald  -61672.06874 53536.54319 53065.22755    -0.24180    -0.14323   112.18884
  Hartree-55523.36091 57085.82993 56712.51738    -0.12340    -0.03295    79.21530
  E(xc)    -930.94673  -932.43951  -932.52352     0.00093    -0.00040     0.01596
  Local  114167.72559************************     0.37302     0.15935  -187.90319
  n-local   677.30569   678.47000   680.89414    -0.01971     0.00939    -1.29101
  augment  -335.61756  -335.60393  -335.83596     0.00333    -0.00242     0.30734
  Kinetic  3101.56995  3114.19596  3104.37408    -0.05555     0.01931    -2.42823
  Fock        0.00000     0.00000     0.00000     0.00000     0.00000     0.00000
  Total      -0.09654    -0.23414    -0.17210    -0.06318     0.00905     0.10501
  in kB      -0.06191    -0.15016    -0.11037    -0.04052     0.00580     0.06734

 VOLUME and BASIS-vectors are now :
  energy-cutoff  :      500.00
  volume of cell :     2498.23
      direct lattice vectors                 reciprocal lattice vectors
    33.018936157  0.000000000  0.000000000     0.030285652  0.000000000  0.000000000
     0.000000000  6.644062952  0.000000000     0.000000000  0.150510314  0.000000000
     0.000000000  0.000000000 11.387675294     0.000000000  0.000000000  0.087814235

  length of vectors
    33.018936157  6.644062952 11.387675294     0.030285652  0.150510314  0.087814235

 FORCES acting on ions
    electron-ion (+dipol)            ewald-force                    non-local-force                 convergence-correction
   0.136E+04 -.707E-01 0.348E+02   -.135E+04 0.678E-01 -.337E+02   -.388E+01 0.154E-02 -.112E+01   -.533E-02 0.184E-02 -.217E-02
   -.136E+04 0.707E-01 -.348E+02   0.135E+04 -.678E-01 0.337E+02   0.388E+01 -.154E-02 0.112E+01   0.774E-02 -.120E-02 -.223E-03
   0.838E+03 0.167E+00 -.296E+02   -.838E+03 -.163E+00 0.291E+02   0.615E-02 -.423E-02 0.466E+00   -.172E-01 -.633E-03 -.257E-02
   0.738E+03 -.910E-02 0.267E+01   -.738E+03 0.429E-02 -.202E+01   0.400E+00 0.617E-02 -.655E+00   -.162E-01 -.206E-03 0.100E-02
   -.296E+02 -.604E-01 0.757E+01   0.292E+02 0.578E-01 -.770E+01   0.343E+00 0.473E-02 0.134E+00   0.996E-02 -.133E-02 -.385E-02
   0.296E+02 0.604E-01 -.757E+01   -.292E+02 -.578E-01 0.770E+01   -.343E+00 -.473E-02 -.134E+00   -.852E-02 -.257E-03 0.538E-02
   -.738E+03 0.912E-02 -.267E+01   0.738E+03 -.430E-02 0.202E+01   -.400E+00 -.617E-02 0.655E+00   0.193E-01 0.141E-02 0.109E-03
   -.838E+03 -.167E+00 0.296E+02   0.838E+03 0.163E+00 -.291E+02   -.615E-02 0.423E-02 -.466E+00   0.193E-01 0.106E-02 -.410E-03
   0.122E+04 0.212E+00 -.479E+02   -.122E+04 -.208E+00 0.478E+02   -.969E+00 -.681E-02 0.491E-01   -.363E-02 -.104E-02 -.972E-03
   -.122E+04 -.212E+00 0.479E+02   0.122E+04 0.208E+00 -.478E+02   0.969E+00 0.681E-02 -.491E-01   0.709E-02 -.244E-03 -.122E-02
   0.107E+04 -.653E-01 0.124E+02   -.107E+04 0.652E-01 -.127E+02   -.114E+01 0.102E-02 0.323E+00   -.145E-01 -.423E-03 -.295E-02
   0.512E+03 -.106E-01 0.249E+02   -.513E+03 0.125E-01 -.247E+02   0.724E+00 -.343E-02 -.155E+00   -.938E-02 0.253E-03 0.181E-02
   -.282E+03 0.141E+00 0.199E+01   0.282E+03 -.136E+00 -.190E+01   0.703E+00 -.582E-02 -.849E-01   0.188E-01 0.729E-03 -.540E-02
   0.282E+03 -.141E+00 -.199E+01   -.282E+03 0.136E+00 0.190E+01   -.703E+00 0.582E-02 0.849E-01   -.166E-01 0.132E-03 0.253E-02
   -.512E+03 0.107E-01 -.249E+02   0.513E+03 -.125E-01 0.247E+02   -.724E+00 0.343E-02 0.155E+00   0.128E-01 -.182E-02 0.728E-03
   -.107E+04 0.653E-01 -.124E+02   0.107E+04 -.652E-01 0.127E+02   0.114E+01 -.102E-02 -.323E+00   0.160E-01 -.719E-03 0.516E-03
   0.543E+03 0.358E+02 -.442E+02   -.543E+03 -.373E+02 0.450E+02   -.355E+00 0.151E+01 -.838E+00   -.341E-02 0.146E-03 0.658E-03
   -.543E+03 -.358E+02 0.442E+02   0.543E+03 0.373E+02 -.450E+02   0.355E+00 -.151E+01 0.838E+00   0.413E-02 0.431E-03 -.539E-03
   0.407E+03 -.290E+02 0.816E+01   -.406E+03 0.301E+02 -.739E+01   -.558E+00 -.117E+01 -.764E+00   -.588E-02 -.325E-03 0.431E-03
   0.207E+03 0.326E+02 0.171E+02   -.208E+03 -.339E+02 -.179E+02   0.599E+00 0.130E+01 0.734E+00   -.443E-02 -.140E-03 -.563E-03
   -.543E+03 0.358E+02 0.441E+02   0.543E+03 -.373E+02 -.450E+02   0.354E+00 0.151E+01 0.839E+00   0.367E-02 -.517E-03 -.622E-03
   0.543E+03 -.358E+02 -.441E+02   -.543E+03 0.373E+02 0.450E+02   -.354E+00 -.151E+01 -.839E+00   -.296E-02 -.817E-04 0.628E-03
   0.207E+03 -.326E+02 0.171E+02   -.208E+03 0.339E+02 -.179E+02   0.587E+00 -.129E+01 0.741E+00   -.427E-02 0.636E-04 -.833E-03
   0.407E+03 0.289E+02 0.817E+01   -.406E+03 -.301E+02 -.741E+01   -.559E+00 0.117E+01 -.769E+00   -.637E-02 0.154E-03 0.547E-03
   -.102E+03 0.297E+02 -.174E+02   0.102E+03 -.311E+02 0.182E+02   0.503E+00 0.137E+01 -.773E+00   0.569E-02 0.531E-03 0.245E-03
   0.102E+03 -.297E+02 0.174E+02   -.102E+03 0.311E+02 -.182E+02   -.503E+00 -.137E+01 0.773E+00   -.565E-02 -.452E-03 -.427E-03
   -.207E+03 -.326E+02 -.171E+02   0.208E+03 0.339E+02 0.179E+02   -.599E+00 -.130E+01 -.734E+00   0.481E-02 0.528E-03 0.897E-03
   -.407E+03 0.290E+02 -.816E+01   0.406E+03 -.301E+02 0.739E+01   0.558E+00 0.117E+01 0.764E+00   0.590E-02 0.210E-04 0.802E-05
   0.102E+03 0.299E+02 0.174E+02   -.102E+03 -.312E+02 -.182E+02   -.500E+00 0.136E+01 0.770E+00   -.587E-02 0.649E-03 -.377E-03
   -.102E+03 -.299E+02 -.174E+02   0.102E+03 0.312E+02 0.182E+02   0.500E+00 -.136E+01 -.770E+00   0.514E-02 -.766E-03 0.330E-04
   -.407E+03 -.289E+02 -.817E+01   0.406E+03 0.301E+02 0.741E+01   0.559E+00 -.117E+01 0.769E+00   0.647E-02 0.297E-04 0.403E-04
   -.207E+03 0.326E+02 -.171E+02   0.208E+03 -.339E+02 0.179E+02   -.587E+00 0.129E+01 -.741E+00   0.490E-02 -.283E-03 0.106E-02
   0.577E+03 0.225E-01 0.327E+02   -.578E+03 -.208E-01 -.323E+02   0.168E+01 -.193E-02 -.457E+00   -.244E-02 -.487E-03 -.263E-03
   -.577E+03 -.225E-01 -.327E+02   0.578E+03 0.208E-01 0.323E+02   -.168E+01 0.193E-02 0.457E+00   0.277E-02 0.411E-03 -.153E-03
   0.334E+03 -.851E-01 -.139E+02   -.331E+03 0.792E-01 0.133E+02   -.213E+01 0.596E-02 0.561E+00   -.565E-02 0.277E-03 0.666E-03
   0.286E+03 0.275E-01 -.509E+01   -.288E+03 -.313E-01 0.566E+01   0.196E+01 0.583E-03 -.571E+00   -.630E-02 -.224E-04 0.593E-03
   -.118E+02 -.749E-02 0.126E+01   0.997E+01 0.498E-02 -.205E+01   0.183E+01 0.268E-02 0.784E+00   0.157E-02 0.295E-03 0.241E-03
   0.118E+02 0.749E-02 -.126E+01   -.997E+01 -.498E-02 0.205E+01   -.183E+01 -.268E-02 -.784E+00   -.229E-02 -.878E-04 0.136E-03
   -.286E+03 -.275E-01 0.509E+01   0.288E+03 0.313E-01 -.566E+01   -.196E+01 -.583E-03 0.571E+00   0.668E-02 -.301E-03 -.824E-03
   -.334E+03 0.851E-01 0.139E+02   0.331E+03 -.792E-01 -.133E+02   0.213E+01 -.596E-02 -.561E+00   0.512E-02 -.233E-03 -.670E-03
   0.520E+03 -.123E+00 0.207E+01   -.520E+03 0.114E+00 -.366E+01   0.163E+00 0.101E-01 0.159E+01   -.356E-02 0.145E-03 0.401E-03
   -.520E+03 0.123E+00 -.207E+01   0.520E+03 -.114E+00 0.366E+01   -.163E+00 -.101E-01 -.159E+01   0.449E-02 -.392E-04 0.404E-04
   0.474E+03 0.185E-01 0.657E+02   -.473E+03 -.188E-01 -.678E+02   -.591E+00 -.498E-03 0.209E+01   -.576E-02 -.116E-03 -.333E-03
   0.199E+03 -.822E-02 -.302E+02   -.199E+03 0.106E-01 0.319E+02   0.574E-01 -.108E-04 -.170E+01   -.430E-02 -.250E-03 -.868E-03
   -.115E+03 -.760E-01 0.386E+02   0.115E+03 0.716E-01 -.402E+02   0.386E-01 0.732E-02 0.158E+01   0.660E-02 -.133E-03 -.102E-02
   0.115E+03 0.760E-01 -.386E+02   -.115E+03 -.716E-01 0.402E+02   -.386E-01 -.732E-02 -.158E+01   -.685E-02 0.777E-04 0.402E-03
   -.199E+03 0.822E-02 0.302E+02   0.199E+03 -.106E-01 -.319E+02   -.574E-01 0.108E-04 0.170E+01   0.503E-02 0.451E-03 0.106E-02
   -.474E+03 -.185E-01 -.657E+02   0.473E+03 0.188E-01 0.678E+02   0.591E+00 0.498E-03 -.209E+01   0.498E-02 0.133E-03 0.633E-03
   -.120E-02 0.251E-03 -.120E-02   -.159E-11 0.237E-13 -.568E-13   -.444E-15 0.000E+00 0.444E-15   0.216E-01 -.235E-02 -.647E-02

 POSITION                                       TOTAL-FORCE (eV/Angst)
      0.33254      1.72699      8.08496        -0.000020      0.000155     -0.000464
     17.68640      5.05086      3.51718         0.000020     -0.000155      0.000464
      4.26875      5.04956      2.29683         0.000552     -0.001455     -0.000602
      4.67614      1.72991      9.32366         0.000646      0.000546     -0.003383
      9.16402      1.72816      7.96338         0.001260      0.001592      0.001074
      8.85491      5.04969      3.63877        -0.001260     -0.001592     -0.001074
     13.34280      5.04794      2.27848        -0.000646     -0.000546      0.003383
     13.75019      1.72829      9.30531        -0.000552      0.001455      0.000602
      1.96804      5.05053     10.49736        -0.007256     -0.003016     -0.003868
     16.05090      1.72732      1.10478         0.007256      0.003016      0.003868
      3.13710      1.72708      4.61567        -0.000066      0.001072      0.000470
      5.95738      5.04927      6.89626         0.003170     -0.000540      0.000856
     10.49211      5.04866     10.43183         0.002110     -0.001050     -0.001835
      7.52682      1.72919      1.17031        -0.002110      0.001050      0.001835
     12.06156      1.72858      4.70589        -0.003170      0.000540     -0.000856
     14.88184      5.05077      6.98647         0.000066     -0.001072     -0.000470
      1.63489      0.53117      1.78117        -0.000023     -0.003852     -0.003237
     16.38404      6.24668      9.82097         0.000023      0.003852      0.003237
      2.80730      6.24608      7.41819        -0.002135     -0.002898     -0.000558
      6.22684      0.51927      4.13076         0.002206     -0.000307     -0.000157
     16.38314      3.85518      9.82194        -0.000800      0.000298      0.005772
      1.63580      2.92267      1.78021         0.000800     -0.000298     -0.005772
      6.22781      2.93403      4.12943        -0.001643      0.002546     -0.000061
      2.80693      3.85287      7.41858         0.000886      0.001525     -0.001127
     10.68186      0.51951      1.76967         0.001325      0.001089     -0.002885
      7.33707      6.25834      9.83247        -0.001325     -0.001089      0.002885
     11.79209      6.25858      7.47139        -0.002206      0.000307      0.000157
     15.21163      0.53177      4.18395         0.002135      0.002898      0.000558
      7.33726      3.84829      9.83266         0.001742     -0.001614      0.000853
     10.68168      2.92956      1.76948        -0.001742      0.001614     -0.000853
     15.21200      2.92498      4.18356        -0.000886     -0.001525      0.001127
     11.79113      3.84382      7.47272         0.001643     -0.002546      0.000061
      0.69684      5.04948      7.12826        -0.003707     -0.000748      0.002298
     17.32210      1.72837      4.47388         0.003707      0.000748     -0.002298
      3.68061      1.72526      1.05390         0.001699      0.000285     -0.002670
      5.33970      5.05254     10.45279         0.003524     -0.003087     -0.000020
      9.78895      5.05044      6.85105         0.001865      0.000362      0.000784
      8.22999      1.72741      4.75110        -0.001865     -0.000362     -0.000784
     12.67924      1.72531      1.14936        -0.003524      0.003087      0.000020
     14.33833      5.05259     10.54824        -0.001699     -0.000285      0.002670
      1.64817      1.72601     11.07459         0.002719      0.001413      0.003932
     16.37077      5.05184      0.52755        -0.002719     -0.001413     -0.003932
      2.36497      5.04905      5.35250        -0.001981     -0.000971     -0.002200
      6.26618      1.72742      6.21553         0.000903      0.002004      0.000217
     10.75739      1.72479     11.06580        -0.005109      0.002778      0.004578
      7.26155      5.05306      0.53634         0.005109     -0.002778     -0.004578
     11.75276      5.05043      5.38661        -0.000903     -0.002004     -0.000217
     15.65397      1.72880      6.24964         0.001981      0.000971      0.002200
    total drift:                                0.020385     -0.002095     -0.007671

  FREE ENERGIE OF THE ION-ELECTRON SYSTEM (eV)
  free  energy   TOTEN  =      -188.60821171 eV

  energy  without entropy=     -188.60821171  energy(sigma->0) =     -188.60821171

 writing wavefunctions

 total charge

# of ion       s       p       d       tot
    1        2.019   5.567   0.314   7.900
    2        2.019   5.567   0.314   7.900
    3        2.018   5.584   0.319   7.920
    4        2.018   5.587   0.328   7.934
    5        2.017   5.588   0.330   7.935
    6        2.017   5.588   0.330   7.935
    7        2.018   5.587   0.328   7.934
    8        2.018   5.584   0.319   7.920
    9        2.016   5.577   0.337   7.930
   10        2.016   5.577   0.337   7.930
   11        2.012   5.576   0.337   7.925
   12        2.011   5.578   0.326   7.915
   13        2.011   5.578   0.332   7.921
   14        2.011   5.578   0.332   7.921
   15        2.011   5.578   0.326   7.915
   16        2.012   5.576   0.337   7.925
   17        0.829   0.807   0.000   1.636
   18        0.829   0.807   0.000   1.636
   19        0.798   0.867   0.000   1.666
   20        0.804   0.862   0.000   1.666
   21        0.829   0.807   0.000   1.636
   22        0.829   0.807   0.000   1.636
   23        0.804   0.863   0.000   1.666
   24        0.798   0.868   0.000   1.666
   25        0.803   0.863   0.000   1.666
   26        0.803   0.863   0.000   1.666
   27        0.804   0.862   0.000   1.666
   28        0.798   0.868   0.000   1.666
   29        0.803   0.863   0.000   1.666
   30        0.803   0.863   0.000   1.666
   31        0.798   0.868   0.000   1.666
   32        0.804   0.863   0.000   1.666
   33        0.816   0.812   0.000   1.627
   34        0.816   0.812   0.000   1.627
   35        0.806   0.825   0.000   1.631
   36        0.808   0.838   0.000   1.645
   37        0.817   0.816   0.000   1.634
   38        0.817   0.816   0.000   1.634
   39        0.808   0.838   0.000   1.645
   40        0.806   0.825   0.000   1.631
   41        0.787   0.875   0.000   1.662
   42        0.787   0.875   0.000   1.662
   43        0.823   0.801   0.000   1.624
   44        0.802   0.860   0.000   1.663
   45        0.803   0.857   0.000   1.660
   46        0.803   0.857   0.000   1.660
   47        0.802   0.860   0.000   1.663
   48        0.823   0.801   0.000   1.624
tot         58.105 116.237   5.247 179.589

 BZINTS: Fermi energy:  0.222500;288.000000 electrons
         Band energy:***********;  BLOECHL correction:  0.000000