 vasp.5.4.4.18Apr17-6-g9f103f2a35 (build Nov 21 2017 15:30:27) complex

 executed on             LinuxIFC date 2020.12.16  20:06:27

 INCAR:
 POTCAR:   PAW_PBE Sr_sv 07Sep2000
 POTCAR:   PAW_PBE Si 05Jan2001

 POTCAR:   PAW_PBE Sr_sv 07Sep2000
   VRHFIN =Sr: 4s4p5s

   TITEL  = PAW_PBE Sr_sv 07Sep2000
   POMASS =   87.620; ZVAL   =   10.000    mass and valenz
   ENMAX  =  229.282; ENMIN  =  171.961 eV
   QCUT   =   -4.105; QGAM   =    8.210    optimization parameters

   Description
     l     E      TYP  RCUT    TYP  RCUT
     0   .000     23  2.480
     0   .000     23  2.480
     1   .000     23  2.500
     1   .000     23  2.500
     2   .000     23  2.500
     2   .000     23  2.500

 POTCAR:   PAW_PBE Si 05Jan2001
   VRHFIN =Si: s2p2

   TITEL  = PAW_PBE Si 05Jan2001
   POMASS =   28.085; ZVAL   =    4.000    mass and valenz
   ENMAX  =  245.345; ENMIN  =  184.009 eV
   QCUT   =   -4.246; QGAM   =    8.493    optimization parameters

   Description
     l     E      TYP  RCUT    TYP  RCUT
     0   .000     23  1.900
     0   .000     23  1.900
     1   .000     23  1.900
     1   .000     23  1.900
     2   .000      7  1.900

 Optimization of the real space projectors (new method)

 maximal supplied QI-value         = 15.12
 optimisation between [QCUT,QGAM] = [ 11.34, 22.83] = [ 36.00,145.93] Ry
 Optimized for a Real-space Cutoff    1.56 Angstroem

   l    n(q)    QCUT    max X(q) W(low)/X(q) W(high)/X(q)  e(spline)
   0     11    11.338     6.584    0.15E-04    0.24E-05    0.13E-07
   0     11    11.338    11.383    0.41E-04    0.15E-04    0.15E-06
   1     10    11.338     3.802    0.90E-05    0.33E-06    0.26E-07
   1     10    11.338    39.081    0.19E-03    0.53E-04    0.42E-06
   2     10    11.338     4.950    0.16E-04    0.40E-04    0.77E-07
   2     10    11.338    88.754    0.21E-03    0.41E-03    0.42E-06
 Optimization of the real space projectors (new method)

 maximal supplied QI-value         = 19.84
 optimisation between [QCUT,QGAM] = [ 11.31, 22.82] = [ 35.82,145.81] Ry
 Optimized for a Real-space Cutoff    1.16 Angstroem

   l    n(q)    QCUT    max X(q) W(low)/X(q) W(high)/X(q)  e(spline)
   0      8    11.310     8.708    0.14E-04    0.11E-04    0.43E-08
   0      8    11.310   106.241    0.27E-03    0.30E-03    0.38E-07
   1      7    11.310     5.901    0.82E-05    0.48E-04    0.19E-07
   1      7    11.310    73.241    0.27E-03    0.27E-03    0.74E-07

 PAW_PBE Sr_sv 07Sep2000                :
 PAW_PBE Si 05Jan2001                   :

 POSCAR: sr8 si16
  positions in cartesian coordinates
 exchange correlation table for  LEXCH =       43
   RHO(1)=    0.500       N(1)  =     2000
   RHO(2)=  100.500       N(2)  =     4000

 ion  position               nearest neighbor table
   1  0.015  0.250  0.691-  24 3.40  18 3.40  13 3.45  10 3.45  16 3.45  11 3.45  21 3.60  17 3.63
                            17 3.63   5 4.41   5 4.41   7 4.42   4 4.71   4 4.71   8 4.80   8 4.80
   2  0.985  0.750  0.309-  23 3.40  17 3.40   9 3.45  14 3.45  12 3.45  15 3.45  22 3.60  18 3.63
                            18 3.63   6 4.41   6 4.41   8 4.42   3 4.71   3 4.71   7 4.80   7 4.80
   3  0.485  0.750  0.191-  22 3.40  20 3.40  12 3.45  15 3.45   9 3.45  14 3.45  23 3.60  19 3.63
                            19 3.63   7 4.41   7 4.41   5 4.42   2 4.71   2 4.71   6 4.80   6 4.80
   4  0.515  0.250  0.809-  21 3.40  19 3.40  16 3.45  11 3.45  13 3.45  10 3.45  24 3.60  20 3.63
                            20 3.63   8 4.41   8 4.41   6 4.42   1 4.71   1 4.71   5 4.80   5 4.80
   5  0.159  0.750  0.907-  10 3.46  13 3.46  21 3.48  21 3.48  11 3.50  16 3.50  22 3.54   9 3.55
                            14 3.55  17 3.71  20 3.82   1 4.41   1 4.41   3 4.42   4 4.80   4 4.80
   6  0.841  0.250  0.093-  14 3.46   9 3.46  22 3.48  22 3.48  15 3.50  12 3.50  21 3.54  13 3.55
                            10 3.55  18 3.71  19 3.82   2 4.41   2 4.41   4 4.42   3 4.80   3 4.80
   7  0.341  0.250  0.407-  15 3.46  12 3.46  23 3.48  23 3.48  14 3.50   9 3.50  24 3.54  16 3.55
                            11 3.55  19 3.71  18 3.82   3 4.41   3 4.41   1 4.42   2 4.80   2 4.80
   8  0.659  0.750  0.593-  11 3.46  16 3.46  24 3.48  24 3.48  10 3.50  13 3.50  23 3.54  12 3.55
                            15 3.55  20 3.71  17 3.82   4 4.41   4 4.41   2 4.42   1 4.80   1 4.80
   9  0.194  0.073  0.147-  14 2.41  21 2.41  19 2.42   2 3.45   3 3.45   6 3.46   7 3.50   5 3.55

  10  0.806  0.927  0.853-  13 2.41  22 2.41  20 2.42   1 3.45   4 3.45   5 3.46   8 3.50   6 3.55

[...]

  24  0.698  0.250  0.533-  15 2.41  12 2.41  18 2.45   1 3.40   8 3.48   8 3.48   7 3.54   4 3.60

  LATTYP: Found a simple orthorhombic cell.
 ALAT       =     6.7778496742
 B/A-ratio  =     1.3292516818
 C/A-ratio  =     1.7117734747

  Lattice vectors:

 A1 = (   0.0000000000,  -6.7778496742,   0.0000000000)
 A2 = (  -9.0094680786,   0.0000000000,   0.0000000000)
 A3 = (   0.0000000000,   0.0000000000, -11.6021432877)

Analysis of symmetry for initial positions (statically):
 Subroutine PRICEL returns:
 Original cell was already a primitive cell.

 Routine SETGRP: Setting up the symmetry group for a
 simple orthorhombic supercell.

 Subroutine GETGRP returns: Found  8 space group operations
 (whereof  2 operations were pure point group operations)
 out of a pool of  8 trial point group operations.

The static configuration has the point symmetry S_2 .
 The point group associated with its full space group is D_2h.

Analysis of symmetry for dynamics (positions and initial velocities):
 Subroutine PRICEL returns:
 Original cell was already a primitive cell.

 Routine SETGRP: Setting up the symmetry group for a
 simple orthorhombic supercell.

 Subroutine GETGRP returns: Found  8 space group operations
 (whereof  2 operations were pure point group operations)
 out of a pool of  8 trial point group operations.

The dynamic configuration has the point symmetry S_2 .
 The point group associated with its full space group is D_2h.

 Subroutine INISYM returns: Found  8 space group operations
 (whereof  2 operations are pure point group operations),
 and found     1 'primitive' translations

 KPOINTS: k-density: 6.0

Automatic generation of k-mesh.
Space group operators:
 irot       det(A)        alpha          n_x          n_y          n_z        tau_x        tau_y        tau_z
    1     1.000000     0.000000     1.000000     0.000000     0.000000     0.000000     0.000000     0.000000
    2    -1.000000     0.000000     1.000000     0.000000     0.000000     0.000000     0.000000     0.000000
    3     1.000000   180.000000     0.000000     0.000000     1.000000    -0.500000     0.000000    -0.500000
    4    -1.000000   180.000000     0.000000     0.000000     1.000000    -0.500000     0.000000    -0.500000
    5     1.000000   180.000000     1.000000     0.000000     0.000000    -0.500000    -0.500000    -0.500000
    6    -1.000000   180.000000     1.000000     0.000000     0.000000    -0.500000    -0.500000    -0.500000
    7     1.000000   180.000000     0.000000     1.000000     0.000000    -0.000000    -0.500000    -0.000000
    8    -1.000000   180.000000     0.000000     1.000000     0.000000     0.000000    -0.500000     0.000000

 Subroutine IBZKPT returns following result:

 Found     36 irreducible k-points:

 Following reciprocal coordinates:
            Coordinates               Weight
  0.000000  0.000000  0.000000      1.000000
  0.200000  0.000000  0.000000      2.000000
  0.400000  0.000000  0.000000      2.000000
  0.000000  0.166667  0.000000      2.000000
  0.200000  0.166667  0.000000      4.000000
  0.400000  0.166667  0.000000      4.000000
  0.000000  0.333333  0.000000      2.000000
  0.200000  0.333333  0.000000      4.000000
  0.400000  0.333333  0.000000      4.000000
  0.000000  0.500000  0.000000      1.000000
  0.200000  0.500000  0.000000      2.000000
  0.400000  0.500000  0.000000      2.000000
  0.000000  0.000000  0.250000      2.000000
  0.200000  0.000000  0.250000      4.000000
  0.400000  0.000000  0.250000      4.000000
  0.000000  0.166667  0.250000      4.000000
  0.200000  0.166667  0.250000      8.000000
  0.400000  0.166667  0.250000      8.000000
  0.000000  0.333333  0.250000      4.000000
  0.200000  0.333333  0.250000      8.000000
  0.400000  0.333333  0.250000      8.000000
  0.000000  0.500000  0.250000      2.000000
  0.200000  0.500000  0.250000      4.000000
  0.400000  0.500000  0.250000      4.000000
  0.000000  0.000000  0.500000      1.000000
  0.200000  0.000000  0.500000      2.000000
  0.400000  0.000000  0.500000      2.000000
  0.000000  0.166667  0.500000      2.000000
  0.200000  0.166667  0.500000      4.000000
  0.400000  0.166667  0.500000      4.000000
  0.000000  0.333333  0.500000      2.000000
  0.200000  0.333333  0.500000      4.000000
  0.400000  0.333333  0.500000      4.000000
  0.000000  0.500000  0.500000      1.000000
  0.200000  0.500000  0.500000      2.000000
  0.400000  0.500000  0.500000      2.000000

 Following cartesian coordinates:
            Coordinates               Weight
  0.000000  0.000000  0.000000      1.000000
  0.022199  0.000000  0.000000      2.000000
  0.044398  0.000000  0.000000      2.000000
  0.000000  0.024590  0.000000      2.000000
  0.022199  0.024590  0.000000      4.000000
  0.044398  0.024590  0.000000      4.000000
  0.000000  0.049180  0.000000      2.000000
  0.022199  0.049180  0.000000      4.000000
  0.044398  0.049180  0.000000      4.000000
  0.000000  0.073770  0.000000      1.000000
  0.022199  0.073770  0.000000      2.000000
  0.044398  0.073770  0.000000      2.000000
  0.000000  0.000000  0.021548      2.000000
  0.022199  0.000000  0.021548      4.000000
  0.044398  0.000000  0.021548      4.000000
  0.000000  0.024590  0.021548      4.000000
  0.022199  0.024590  0.021548      8.000000
  0.044398  0.024590  0.021548      8.000000
  0.000000  0.049180  0.021548      4.000000
  0.022199  0.049180  0.021548      8.000000
  0.044398  0.049180  0.021548      8.000000
  0.000000  0.073770  0.021548      2.000000
  0.022199  0.073770  0.021548      4.000000
  0.044398  0.073770  0.021548      4.000000
  0.000000  0.000000  0.043095      1.000000
  0.022199  0.000000  0.043095      2.000000
  0.044398  0.000000  0.043095      2.000000
  0.000000  0.024590  0.043095      2.000000
  0.022199  0.024590  0.043095      4.000000
  0.044398  0.024590  0.043095      4.000000
  0.000000  0.049180  0.043095      2.000000
  0.022199  0.049180  0.043095      4.000000
  0.044398  0.049180  0.043095      4.000000
  0.000000  0.073770  0.043095      1.000000
  0.022199  0.073770  0.043095      2.000000
  0.044398  0.073770  0.043095      2.000000

 TETIRR: Found    360 inequivalent tetrahedra from      720

 SYSTEM =  unknown system
 POSCAR =  sr8 si16

 Startparameter for this run:
   NWRITE =      2    write-flag & timer
   PREC   = normal    normal or accurate (medium, high low for compatibility)
   ISTART =      0    job   : 0-new  1-cont  2-samecut
   ICHARG =      2    charge: 1-file 2-atom 10-const
   ISPIN  =      1    spin polarized calculation?
   LNONCOLLINEAR =      F non collinear calculations
[...]
      1.75027      0.49167      1.70254        -0.108716     -0.459556      0.205719
      7.25920      6.28618      9.89960         0.108716      0.459556     -0.205719
      2.75446      6.28618      7.50362         0.108716      0.459556      0.205719
      6.25500      0.49167      4.09853        -0.108716     -0.459556     -0.205719
      7.25920      3.88060      9.89960         0.108716     -0.459556     -0.205719
      1.75027      2.89725      1.70254        -0.108716      0.459556      0.205719
      6.25500      2.89725      4.09853        -0.108716      0.459556     -0.205719
      2.75446      3.88060      7.50362         0.108716     -0.459556      0.205719
      0.74693      5.08339      6.86848        -0.358901     -0.000000     -0.130905
      8.26254      1.69446      4.73366         0.358901     -0.000000      0.130905
      3.75780      1.69446      1.06741         0.358901     -0.000000     -0.130905
      5.25166      5.08339     10.53473        -0.358901     -0.000000      0.130905
      1.78112      1.69446     11.21858        -0.000239     -0.000000     -0.506375
      7.22835      5.08339      0.38357         0.000239     -0.000000      0.506375
      2.72362      5.08339      5.41750         0.000239     -0.000000     -0.506375
      6.28585      1.69446      6.18464        -0.000239     -0.000000      0.506375
    total drift:                               -0.000365      0.000518      0.000064

  FREE ENERGIE OF THE ION-ELECTRON SYSTEM (eV)
  free  energy   TOTEN  =       -91.97212336 eV

  energy  without entropy=      -91.97212336  energy(sigma->0) =      -91.97212336

[...]

 E-fermi :   3.8316     XC(G=0):  -8.9810     alpha+bet :-10.2969

[...]

 d Force = 0.2581134E+00[ 0.337E+00, 0.179E+00]  d Energy = 0.1359925E+01-0.110E+01
 d Force = 0.1356295E+02[ 0.134E+02, 0.137E+02]  d Ewald  = 0.2503011E+03-0.237E+03

 Steepest descent step on ions:
 trial-energy change:   -1.359925  1 .order   -1.315905   -2.092248   -0.539562
  (g-gl).g = 0.209E+01      g.g   = 0.209E+01  gl.gl    = 0.000E+00
 g(Force)  = 0.186E+00   g(Stress)= 0.191E+01 ortho     = 0.000E+00
 gamma     =   0.00000
 trial     =   1.00000
 opt step  =   1.28516  (harmonic =   1.34750) maximal distance =0.03139506
 next E    =   -93.410001   (d E  =  -1.43788)

[...]

 d Force = 0.1057523E+00[ 0.113E+00, 0.986E-01]  d Energy = 0.7750717E-01 0.282E-01
 d Force = 0.3900090E+01[ 0.388E+01, 0.392E+01]  d Ewald  = 0.7469723E+02-0.708E+02

[...]

 d Force = 0.4484482E+00[-0.319E+00, 0.122E+01]  d Energy = 0.3505451E+00 0.979E-01
 d Force = 0.3739670E+02[ 0.314E+02, 0.434E+02]  d Ewald  = 0.1119812E+03-0.746E+02

 Conjugate gradient step on ions:
 trial-energy change:   -0.350545  1 .order   -0.383261   -1.110293    0.343771
  (g-gl).g = 0.104E+01      g.g   = 0.105E+01  gl.gl    = 0.209E+01
 g(Force)  = 0.965E+00   g(Stress)= 0.805E-01 ortho     = 0.949E-02
 gamma     =   0.49525
 trial     =   1.05703
 opt step  =   0.77950  (harmonic =   0.80713) maximal distance =0.05166649
 next E    =   -93.805823   (d E  =  -0.39627)

[...]

 d Force = 0.3676045E-01[-0.115E-01, 0.850E-01]  d Energy = 0.4451847E-01-0.776E-02
 d Force =-0.8775543E+01[-0.919E+01,-0.836E+01]  d Ewald  =-0.2850367E+02 0.197E+02

[...]

 d Force = 0.8554633E-02[ 0.607E-02, 0.110E-01]  d Energy = 0.1148815E-01-0.293E-02
 d Force =-0.1967964E+00[-0.214E+00,-0.179E+00]  d Ewald  =-0.1809188E+02 0.179E+02

 Conjugate gradient step on ions:
 trial-energy change:   -0.011488  1 .order   -0.011506   -0.020321   -0.002690
  (g-gl).g =-0.423E-01      g.g   = 0.206E-01  gl.gl    = 0.105E+01
 g(Force)  = 0.127E-01   g(Stress)= 0.792E-02 ortho     = 0.741E-02
 gamma     =  -0.04046
 trial     =   1.00153
 opt step  =   1.15435  (harmonic =   1.15435) maximal distance =0.00650269
 next E    =   -93.816330   (d E  =  -0.01171)

 real space projection operators:
  max/ min on nodes  :       1314.28       1206.69

[...]

 eigenvalue-minimisations  :  4816
 total energy-change (2. order) : 0.1748351E-05  (-0.1519582E-06)
 number of electron     143.9999984 magnetization
 augmentation part        0.2780397 magnetization

 Broyden mixing:
  rms(total) = 0.27636E-03    rms(broyden)= 0.27636E-03
  rms(prec ) = 0.33880E-03
  weight for this iteration     100.00

 eigenvalues of (default mixing * dielectric matrix)
  average eigenvalue GAMMA=   1.5012
  2.4594  1.7779  1.4058  1.4058  1.0684  0.8896

[...]

--------------------------------------- Iteration      7(   8)  ---------------------------------------

 BZINTS: Fermi energy:  4.200558;144.000000 electrons
         Band energy:***********;  BLOECHL correction:  0.000000

 eigenvalue-minimisations  :  3904
 total energy-change (2. order) :-0.5118709E-06  (-0.1087089E-06)
 number of electron     143.9999984 magnetization
 augmentation part        0.2780397 magnetization

 Free energy of the ion-electron system (eV)
  alpha Z        PSCENC =       388.43660564
  Ewald energy   TEWEN  =     -6762.16257921
  -Hartree energ DENC   =     -1506.31359877
  -exchange      EXHF   =         0.00000000
  -V(xc)+E(xc)   XCENC  =       128.84001157
  PAW double counting   =      4679.37169527    -4317.95356412
  entropy T*S    EENTRO =         0.00000000
  eigenvalues    EBANDS =     -1111.42715826
  atomic energy  EATOM  =      8407.39227039
  Solvation  Ediel_sol  =         0.00000000
  free energy    TOTEN  =       -93.81631748 eV

  energy without entropy =      -93.81631748  energy(sigma->0) =      -93.81631748

 average (electrostatic) potential at core
  the test charge radii are     1.1929  0.9892
  (the norm of the test charge is              1.0000)
       1 -36.8930       2 -36.8930       3 -36.8930       4 -36.8930       5 -37.1537
       6 -37.1537       7 -37.1537       8 -37.1537       9 -84.7323      10 -84.7323
      11 -84.7323      12 -84.7323      13 -84.7323      14 -84.7323      15 -84.7323
      16 -84.7323      17 -84.8001      18 -84.8001      19 -84.8001      20 -84.8001
      21 -84.6661      22 -84.6661      23 -84.6661      24 -84.6661

 E-fermi :   4.2006     XC(G=0):  -9.1975     alpha+bet :-10.7933

[...]

 k-point    36 :       0.4000    0.5000    0.5000
  band No.  band energies     occupation
      1     -31.1003      2.00000
      2     -31.1003      2.00000
      3     -31.1002      2.00000
      4     -31.1002      2.00000
      5     -30.8661      2.00000
      6     -30.8661      2.00000
      7     -30.8651      2.00000
      8     -30.8651      2.00000
      9     -13.2654      2.00000
     10     -13.2654      2.00000
     11     -13.2640      2.00000
     12     -13.2640      2.00000
     13     -13.2501      2.00000
     14     -13.2501      2.00000
     15     -13.2490      2.00000
     16     -13.2490      2.00000
     17     -13.2015      2.00000
     18     -13.2015      2.00000
     19     -13.1992      2.00000
     20     -13.1992      2.00000
     21     -13.0392      2.00000
     22     -13.0392      2.00000
     23     -13.0238      2.00000
     24     -13.0238      2.00000
     25     -13.0008      2.00000
     26     -13.0008      2.00000
     27     -12.9927      2.00000
     28     -12.9927      2.00000
     29     -12.9919      2.00000
     30     -12.9919      2.00000
     31     -12.9882      2.00000
     32     -12.9882      2.00000
     33      -6.7294      2.00000
     34      -6.7294      2.00000
     35      -6.7075      2.00000
     36      -6.7075      2.00000
     37      -2.5778      2.00000
     38      -2.5778      2.00000
     39      -2.4462      2.00000
     40      -2.4462      2.00000
     41      -1.8811      2.00000
     42      -1.8811      2.00000
     43      -1.8388      2.00000
     44      -1.8388      2.00000
     45      -1.6858      2.00000
     46      -1.6858      2.00000
     47      -1.6274      2.00000
     48      -1.6274      2.00000
     49       1.1138      2.00000
     50       1.1138      2.00000
     51       1.3179      2.00000
     52       1.3179      2.00000
     53       1.8103      2.00000
     54       1.8103      2.00000
     55       1.9975      2.00000
     56       1.9975      2.00000
     57       2.4026      2.00000
     58       2.4026      2.00000
     59       2.4800      2.00000
     60       2.4800      2.00000
[...]
     74       4.8367      0.00000
     75       5.0487      0.00000
     76       5.0487      0.00000
     77       5.2088      0.00000
     78       5.2088      0.00000
     79       5.3541      0.00000
     80       5.3541      0.00000
     81       6.0440      0.00000
     82       6.0440      0.00000
     83       6.2814      0.00000
     84       6.2814      0.00000
     85       6.6280      0.00000
     86       6.6280      0.00000
     87       6.8255      0.00000
     88       6.8255      0.00000

 soft charge-density along one line, spin component           1
         0         1         2         3         4         5         6         7         8         9
 total charge-density along one line

------------------------ aborting loop because EDIFF is reached ----------------------------------------

  FORCE on cell =-STRESS in cart. coord.  units (eV):
  Direction    XX          YY          ZZ          XY          YZ          ZX
  Alpha Z   388.43661   388.43661   388.43661
  Ewald   -2267.63601 -2248.51645 -2246.02936    -0.00000    -0.00000    -0.00013
  Hartree   492.36859   509.75106   504.19618    -0.00000    -0.00000    -0.00000
  E(xc)    -500.68931  -500.56467  -500.55628    -0.00000    -0.00000    -0.00000
  Local     186.15917   155.35101   160.11216     0.00000     0.00000     0.00010
  n-local   228.36019   224.29067   225.10020    -0.13037    -0.14659    -0.13134
  augment   -71.73704   -70.56656   -70.84415     0.00000    -0.00000    -0.00000
  Kinetic  1543.73732  1541.59116  1538.91418     1.16270    -1.25857     0.25665
  Fock        0.00000     0.00000     0.00000     0.00000     0.00000     0.00000
  Total      -1.00049    -0.22717    -0.67046     0.00000     0.00000     0.00000
  in kB      -2.64517    -0.60060    -1.77260     0.00000     0.00000     0.00000

 VOLUME and BASIS-vectors are now :
  energy-cutoff  :      500.00
  volume of cell :      606.00
      direct lattice vectors                 reciprocal lattice vectors
     8.568593312  0.000000000  0.000000000     0.116705270 -0.000000000  0.000000000
     0.000000000  6.421728586  0.000000000    -0.000000000  0.155721312  0.000000000
     0.000000000  0.000000000 11.013125654     0.000000000  0.000000000  0.090800744

  length of vectors
     8.568593312  6.421728586 11.013125654     0.116705270  0.155721312  0.090800744

 FORCES acting on ions
    electron-ion (+dipol)            ewald-force                    non-local-force                 convergence-correction
   0.249E+01 0.958E-04 0.637E+01   -.284E+01 0.153E-04 -.680E+01   0.396E+00 0.209E-19 0.475E+00   -.125E-04 0.168E-08 -.585E-04
   -.249E+01 0.130E-04 -.637E+01   0.284E+01 -.216E-04 0.680E+01   -.396E+00 0.106E-18 -.475E+00   0.125E-04 0.246E-09 0.585E-04
   -.249E+01 0.769E-05 0.637E+01   0.284E+01 -.216E-04 -.680E+01   -.396E+00 -.682E-18 0.475E+00   0.125E-04 0.221E-09 -.585E-04
   0.249E+01 0.905E-04 -.637E+01   -.284E+01 0.153E-04 0.680E+01   0.396E+00 0.547E-18 -.475E+00   -.125E-04 0.166E-08 0.585E-04
   -.226E+02 0.112E-04 -.487E+01   0.218E+02 -.196E-04 0.507E+01   0.763E+00 -.852E-18 -.190E+00   -.549E-04 -.267E-09 -.586E-04
   0.226E+02 0.929E-04 0.487E+01   -.218E+02 0.188E-04 -.507E+01   -.763E+00 0.945E-18 0.190E+00   0.549E-04 0.119E-08 0.586E-04
   0.226E+02 0.918E-04 -.487E+01   -.218E+02 0.188E-04 0.507E+01   -.763E+00 -.116E-17 -.190E+00   0.549E-04 0.105E-08 -.586E-04
   -.226E+02 0.100E-04 0.487E+01   0.218E+02 -.196E-04 -.507E+01   0.763E+00 0.104E-17 0.190E+00   -.549E-04 -.400E-09 0.586E-04
   0.774E+01 0.236E+02 -.133E+02   -.831E+01 -.250E+02 0.142E+02   0.616E+00 0.144E+01 -.895E+00   -.626E-05 0.441E-04 0.130E-04
   -.774E+01 -.236E+02 0.133E+02   0.831E+01 0.250E+02 -.142E+02   -.616E+00 -.144E+01 0.895E+00   0.626E-05 -.441E-04 -.130E-04
   -.774E+01 -.236E+02 -.133E+02   0.831E+01 0.250E+02 0.142E+02   -.616E+00 -.144E+01 -.895E+00   0.626E-05 -.441E-04 0.130E-04
   0.774E+01 0.236E+02 0.133E+02   -.831E+01 -.250E+02 -.142E+02   0.616E+00 0.144E+01 0.895E+00   -.626E-05 0.441E-04 -.130E-04
   -.774E+01 0.236E+02 0.133E+02   0.831E+01 -.250E+02 -.142E+02   -.616E+00 0.144E+01 0.895E+00   0.626E-05 0.441E-04 -.130E-04
   0.774E+01 -.236E+02 -.133E+02   -.831E+01 0.250E+02 0.142E+02   0.616E+00 -.144E+01 -.895E+00   -.626E-05 -.441E-04 0.130E-04
   0.774E+01 -.236E+02 0.133E+02   -.831E+01 0.250E+02 -.142E+02   0.616E+00 -.144E+01 0.895E+00   -.626E-05 -.441E-04 -.130E-04
   -.774E+01 0.236E+02 -.133E+02   0.831E+01 -.250E+02 0.142E+02   -.616E+00 0.144E+01 -.895E+00   0.626E-05 0.441E-04 0.130E-04
   0.372E+02 -.108E-04 0.826E+00   -.392E+02 -.877E-05 -.173E+01   0.203E+01 0.837E-18 0.905E+00   -.137E-04 -.356E-09 0.569E-05
   -.372E+02 -.296E-05 -.826E+00   0.392E+02 0.892E-05 0.173E+01   -.203E+01 0.407E-18 -.905E+00   0.137E-04 -.221E-11 -.569E-05
   -.372E+02 0.779E-05 0.826E+00   0.392E+02 0.892E-05 -.173E+01   -.203E+01 0.162E-17 0.905E+00   0.137E-04 -.233E-10 0.568E-05
   0.372E+02 -.559E-07 -.826E+00   -.392E+02 -.877E-05 0.173E+01   0.203E+01 -.549E-19 -.905E+00   -.137E-04 -.377E-09 -.568E-05
   0.547E+01 -.502E-05 0.273E+02   -.537E+01 0.960E-05 -.289E+02   -.949E-01 0.829E-18 0.161E+01   0.350E-04 0.686E-10 0.475E-04
   -.547E+01 -.117E-04 -.273E+02   0.537E+01 -.102E-04 0.289E+02   0.949E-01 0.124E-17 -.161E+01   -.350E-04 -.258E-09 -.475E-04
   -.547E+01 0.327E-06 0.273E+02   0.537E+01 -.102E-04 -.289E+02   0.949E-01 0.104E-16 0.161E+01   -.350E-04 -.145E-09 0.475E-04
   0.547E+01 0.703E-05 -.273E+02   -.537E+01 0.960E-05 0.289E+02   -.949E-01 0.861E-17 -.161E+01   0.350E-04 0.182E-09 -.475E-04
   -.334E-03 0.463E-03 0.500E-04   0.462E-13 0.626E-14 -.284E-13   -.133E-14 0.246E-15 0.444E-15   -.285E-08 0.429E-08 -.369E-10

 POSITION                                       TOTAL-FORCE (eV/Angst)
      0.12948      1.60543      7.62424         0.044738     -0.000000      0.047123
      8.43911      4.81630      3.38888        -0.044738     -0.000000     -0.047123
      4.15482      4.81630      2.11768        -0.044738     -0.000000      0.047123
      4.41378      1.60543      8.89545         0.044738      0.000000     -0.047123
      1.35491      4.81630      9.98590         0.007909      0.000000      0.005733
      7.21368      1.60543      1.02722        -0.007909      0.000000     -0.005733
      2.92938      1.60543      4.47934        -0.007909      0.000000      0.005733
      5.63921      4.81630      6.53379         0.007909     -0.000000     -0.005733
      1.64638      0.39944      1.64382         0.053719      0.013353     -0.051090
      6.92222      6.02229      9.36931        -0.053719     -0.013353      0.051090
      2.63792      6.02229      7.15038        -0.053719     -0.013353     -0.051090
      5.93067      0.39944      3.86274         0.053719      0.013353      0.051090
      6.92222      3.61030      9.36931        -0.053719      0.013353      0.051090
      1.64638      2.81142      1.64382         0.053719     -0.013353     -0.051090
      5.93067      2.81142      3.86274         0.053719     -0.013353      0.051090
      2.63792      3.61030      7.15038        -0.053719      0.013353     -0.051090
      0.63122      4.81630      6.51149        -0.036276     -0.000000      0.004064
      7.93737      1.60543      4.50164         0.036276      0.000000     -0.004064
      3.65307      1.60543      1.00492         0.036276      0.000000      0.004064
      4.91552      4.81630     10.00820        -0.036276     -0.000000     -0.004064
      1.67728      1.60543     10.56943         0.004017      0.000000     -0.039175
      6.89132      4.81630      0.44370        -0.004017     -0.000000      0.039175
      2.60702      4.81630      5.06286        -0.004017      0.000000     -0.039175
      5.96157      1.60543      5.95026         0.004017     -0.000000      0.039175
    total drift:                               -0.000334      0.000463      0.000050

  FREE ENERGIE OF THE ION-ELECTRON SYSTEM (eV)
  free  energy   TOTEN  =       -93.81631748 eV

  energy  without entropy=      -93.81631748  energy(sigma->0) =      -93.81631748

 d Force = 0.8658320E-03[ 0.808E-03, 0.924E-03]  d Energy = 0.2102342E-03 0.656E-03
 d Force =-0.3317626E-01[-0.336E-01,-0.328E-01]  d Ewald  =-0.2755432E+01 0.272E+01

 reached required accuracy - stopping structural energy minimisation
 writing wavefunctions
 BZINTS: Fermi energy:  4.200558;144.000000 electrons
         Band energy:***********;  BLOECHL correction:  0.000000