 vasp.5.4.4.18Apr17-6-g9f103f2a35 (build Nov 21 2017 15:30:27) complex

 executed on             LinuxIFC date 2020.09.16  13:55:59

 INCAR:
 POTCAR:   PAW_PBE Ba_sv 06Sep2000
 POTCAR:   PAW_PBE Si 05Jan2001

 POTCAR:   PAW_PBE Ba_sv 06Sep2000
   VRHFIN =Ba: 5s5p6s

   TITEL  = PAW_PBE Ba_sv 06Sep2000
   POMASS =  137.327; ZVAL   =   10.000    mass and valenz
   ENMAX  =  187.210; ENMIN  =  140.408 eV
   QCUT   =   -3.709; QGAM   =    7.419    optimization parameters

   Description
     l     E      TYP  RCUT    TYP  RCUT
     0   .000     23  2.800
     0   .000     23  2.800
     1   .000     23  2.700
     1  2.000     23  2.700
     2   .000     23  2.700
     2   .000     23  2.700

 POTCAR:   PAW_PBE Si 05Jan2001
   VRHFIN =Si: s2p2

   TITEL  = PAW_PBE Si 05Jan2001
   POMASS =   28.085; ZVAL   =    4.000    mass and valenz
   ENMAX  =  245.345; ENMIN  =  184.009 eV
   QCUT   =   -4.246; QGAM   =    8.493    optimization parameters

   Description
     l     E      TYP  RCUT    TYP  RCUT
     0   .000     23  1.900
     0   .000     23  1.900
     1   .000     23  1.900
     1   .000     23  1.900
     2   .000      7  1.900

 Optimization of the real space projectors (new method)

 maximal supplied QI-value         = 13.42
 optimisation between [QCUT,QGAM] = [ 11.40, 22.81] = [ 36.42,145.68] Ry
 Optimized for a Real-space Cutoff    1.56 Angstroem

   l    n(q)    QCUT    max X(q) W(low)/X(q) W(high)/X(q)  e(spline)
   0     11    11.404     7.198    0.14E-04    0.26E-04    0.99E-07
   0     11    11.404    15.603    0.29E-04    0.72E-04    0.44E-06
   1     10    11.404     3.746    0.20E-04    0.24E-04    0.43E-07
   1     10    11.404     4.362    0.22E-03    0.97E-04    0.22E-06
   2     10    11.404     5.782    0.83E-04    0.62E-05    0.27E-06
   2     10    11.404    65.505    0.42E-03    0.31E-04    0.12E-05
 Optimization of the real space projectors (new method)

 maximal supplied QI-value         = 19.84
 optimisation between [QCUT,QGAM] = [ 11.31, 22.82] = [ 35.82,145.81] Ry
 Optimized for a Real-space Cutoff    1.16 Angstroem

   l    n(q)    QCUT    max X(q) W(low)/X(q) W(high)/X(q)  e(spline)
   0      8    11.310     8.708    0.14E-04    0.11E-04    0.43E-08
   0      8    11.310   106.241    0.27E-03    0.30E-03    0.38E-07
   1      7    11.310     5.901    0.82E-05    0.48E-04    0.19E-07
   1      7    11.310    73.241    0.27E-03    0.27E-03    0.74E-07

 PAW_PBE Ba_sv 06Sep2000                :
 PAW_PBE Si 05Jan2001                   :

 POSCAR: ba8 si16
  positions in direct lattice
  velocities in cartesian coordinates
 exchange correlation table for  LEXCH =       42
   RHO(1)=    0.500       N(1)  =     2000
   RHO(2)=  100.500       N(2)  =     4000

 ion  position               nearest neighbor table
   1  0.006  0.250  0.705-  21 3.39  16 3.44  11 3.44  17 3.65  17 3.65   5 4.38   5 4.38   7 4.61

   2  0.382  0.750  0.295-  22 3.39  12 3.44  15 3.44  18 3.65  18 3.65   6 4.38   6 4.38   8 4.61

   3  0.182  0.750  0.187-  20 3.34   9 3.44  14 3.44  12 3.56  15 3.56  22 3.59  19 3.65  19 3.65
                            23 3.74   5 4.29   7 4.38   7 4.38
   4  0.206  0.250  0.813-  19 3.34  13 3.44  10 3.44  16 3.56  11 3.56  21 3.59  20 3.65  20 3.65
                            24 3.74   6 4.29   8 4.38   8 4.38
   5  0.060  0.750  0.916-   9 3.44  14 3.44  21 3.45  21 3.45  11 3.49  16 3.49  17 3.74   3 4.29
                             1 4.38   1 4.38
   6  0.328  0.250  0.084-  13 3.44  10 3.44  22 3.45  22 3.45  15 3.49  12 3.49  18 3.74   4 4.29
                             2 4.38   2 4.38
   7  0.128  0.250  0.398-  14 3.45   9 3.45  23 3.52  23 3.52  19 3.73  16 3.74  11 3.74  15 3.75
                            12 3.75  24 3.81   3 4.38   3 4.38   1 4.61
   8  0.260  0.750  0.602-  10 3.45  13 3.45  24 3.52  24 3.52  20 3.73  12 3.74  15 3.74  11 3.75
                            16 3.75  23 3.81   4 4.38   4 4.38   2 4.61
   9  0.073  0.072  0.144-  14 2.42  21 2.45  19 2.45   5 3.44   3 3.44   7 3.45
  10  0.315  0.928  0.856-  13 2.42  22 2.45  20 2.45   6 3.44   4 3.44   8 3.45
  11  0.115  0.930  0.659-  16 2.44  17 2.45  23 2.45   1 3.44   5 3.49   4 3.56   7 3.74   8 3.75

[...]

  17  0.031  0.750  0.599-  23 2.44  11 2.45  16 2.45   1 3.65   1 3.65   5 3.74
  18  0.357  0.250  0.401-  24 2.44  15 2.45  12 2.45   2 3.65   2 3.65   6 3.74
  19  0.157  0.250  0.082-  21 2.43  14 2.45   9 2.45   4 3.34   3 3.65   3 3.65   7 3.73
  20  0.231  0.750  0.918-  22 2.43  10 2.45  13 2.45   3 3.34   4 3.65   4 3.65   8 3.73
  21  0.074  0.250  0.961-  19 2.43  14 2.45   9 2.45   1 3.39   5 3.45   5 3.45   4 3.59
  22  0.314  0.750  0.039-  20 2.43  10 2.45  13 2.45   2 3.39   6 3.45   6 3.45   3 3.59
  23  0.113  0.750  0.476-  17 2.44  11 2.45  16 2.45   7 3.52   7 3.52   3 3.74   8 3.81
  24  0.274  0.250  0.524-  18 2.44  15 2.45  12 2.45   8 3.52   8 3.52   4 3.74   7 3.81

  LATTYP: Found a simple orthorhombic cell.
 ALAT       =     6.7778496742
 B/A-ratio  =     1.7117734747
 C/A-ratio  =     3.5423429602

  Lattice vectors:

 A1 = (   0.0000000000,   6.7778496742,   0.0000000000)
 A2 = (   0.0000000000,   0.0000000000, -11.6021432877)
 A3 = ( -24.0094680786,   0.0000000000,   0.0000000000)

Analysis of symmetry for initial positions (statically):
 Subroutine PRICEL returns:
 Original cell was already a primitive cell.

 Routine SETGRP: Setting up the symmetry group for a
 simple orthorhombic supercell.

 Subroutine GETGRP returns: Found  4 space group operations
 (whereof  1 operations were pure point group operations)
 out of a pool of  8 trial point group operations.

The static configuration has the point symmetry C_1 .
 The point group associated with its full space group is C_2h.

Analysis of symmetry for dynamics (positions and initial velocities):
 Subroutine PRICEL returns:
 Original cell was already a primitive cell.

[...]

The dynamic configuration has the point symmetry C_1 .
 The point group associated with its full space group is C_2h.

Analysis of constrained symmetry for selective dynamics:
 Subroutine PRICEL returns:
 Original cell was already a primitive cell.

 Routine SETGRP: Setting up the symmetry group for a
 simple orthorhombic supercell.

 Subroutine GETGRP returns: Found  4 space group operations
 (whereof  1 operations were pure point group operations)
 out of a pool of  8 trial point group operations.

The constrained configuration has the point symmetry C_1 .
 The point group associated with its full space group is C_2h.

 Subroutine INISYM returns: Found  4 space group operations
 (whereof  1 operations are pure point group operations),
 and found     1 'primitive' translations

 KPOINTS: k-density: 8.0

Automatic generation of k-mesh.
Space group operators:
 irot       det(A)        alpha          n_x          n_y          n_z        tau_x        tau_y        tau_z
    1     1.000000     0.000000     1.000000     0.000000     0.000000     0.000000     0.000000     0.000000
    2    -1.000000     0.000000     1.000000     0.000000     0.000000    -0.612258     0.000000     0.000000
    3     1.000000   180.000000     0.000000     1.000000     0.000000    -0.612258     0.500000     0.000000
    4    -1.000000   180.000000     0.000000     1.000000     0.000000     0.000000     0.500000     0.000000

 Subroutine IBZKPT returns following result:

 Found     15 irreducible k-points:

 Following reciprocal coordinates:
            Coordinates               Weight
  0.000000  0.000000  0.000000      1.000000
  0.000000  0.125000  0.000000      2.000000
  0.000000  0.250000  0.000000      2.000000
  0.000000  0.375000  0.000000      2.000000
  0.000000  0.500000  0.000000      1.000000
  0.000000  0.000000  0.200000      2.000000
  0.000000  0.125000  0.200000      4.000000
  0.000000  0.250000  0.200000      4.000000
  0.000000  0.375000  0.200000      4.000000
  0.000000  0.500000  0.200000      2.000000
  0.000000  0.000000  0.400000      2.000000
  0.000000  0.125000  0.400000      4.000000
  0.000000  0.250000  0.400000      4.000000
  0.000000  0.375000  0.400000      4.000000
  0.000000  0.500000  0.400000      2.000000

 Following cartesian coordinates:
            Coordinates               Weight
  0.000000  0.000000  0.000000      1.000000
  0.000000  0.018442  0.000000      2.000000
  0.000000  0.036885  0.000000      2.000000
  0.000000  0.055327  0.000000      2.000000
  0.000000  0.073770  0.000000      1.000000
  0.000000  0.000000  0.017238      2.000000
  0.000000  0.018442  0.017238      4.000000
  0.000000  0.036885  0.017238      4.000000
  0.000000  0.055327  0.017238      4.000000
  0.000000  0.073770  0.017238      2.000000
  0.000000  0.000000  0.034476      2.000000
  0.000000  0.018442  0.034476      4.000000
  0.000000  0.036885  0.034476      4.000000
  0.000000  0.055327  0.034476      4.000000
  0.000000  0.073770  0.034476      2.000000

 TETIRR: Found    108 inequivalent tetrahedra from      240

 SYSTEM =  unknown system
 POSCAR =  ba8 si16

 Startparameter for this run:
   NWRITE =      2    write-flag & timer
   PREC   = normal    normal or accurate (medium, high low for compatibility)
   ISTART =      0    job   : 0-new  1-cont  2-samecut
   ICHARG =      2    charge: 1-file 2-atom 10-const
   ISPIN  =      1    spin polarized calculation?
   LNONCOLLINEAR =      F non collinear calculations
   LSORBIT =      F    spin-orbit coupling
   INIWAV =      1    electr: 0-lowe 1-rand  2-diag
   LASPH  =      T    aspherical Exc in radial PAW
   METAGGA=      F    non-selfconsistent MetaGGA calc.

 Electronic Relaxation 1
   ENCUT  =  500.0 eV  36.75 Ry    6.06 a.u.  43.77 12.36 21.15*2*pi/ulx,y,z
   ENINI  =  500.0     initial cutoff
   ENAUG  =  351.2 eV  augmentation charge cutoff
   NELM   =    100;   NELMIN=  2; NELMDL= -5     # of ELM steps
   EDIFF  = 0.1E-05   stopping-criterion for ELM
   LREAL  =      T    real-space projection
   NLSPLINE    = F    spline interpolate recip. space projectors
   LCOMPAT=      F    compatible to vasp.4.4
   GGA_COMPAT  = T    GGA compatible to vasp.4.4-vasp.4.6
   LMAXPAW     = -100 max onsite density
   LMAXMIX     =    2 max onsite mixed and CHGCAR
   VOSKOWN=      0    Vosko Wilk Nusair interpolation
   ROPT   =   -0.00050  -0.00050
 Ionic relaxation
   EDIFFG = -.1E-02   stopping-criterion for IOM
   NSW    =      0    number of steps for IOM
   NBLOCK =      1;   KBLOCK =      1    inner block; outer block
   IBRION =     -1    ionic relax: 0-MD 1-quasi-New 2-CG
   NFREE  =      0    steps in history (QN), initial steepest desc. (CG)
   ISIF   =      2    stress and relaxation
   IWAVPR =     10    prediction:  0-non 1-charg 2-wave 3-comb
   ISYM   =      2    0-nonsym 1-usesym 2-fastsym
   LCORR  =      T    Harris-Foulkes like correction to forces

   POTIM  = 0.3000    time-step for ionic-motion
   TEIN   =    0.0    initial temperature
   TEBEG  =    0.0;   TEEND  =   0.0 temperature during run
   SMASS  =  -3.00    Nose mass-parameter (am)
   estimated Nose-frequenzy (Omega)   =  0.10E-29 period in steps =****** mass=  -0.132E-25a.u.
   SCALEE = 1.0000    scale energy and forces
[...]

 BZINTS: Fermi energy:  6.784693;144.000000 electrons
         Band energy:-481.341104;  BLOECHL correction: -0.030640

 eigenvalue-minimisations  :  2768
 total energy-change (2. order) : 0.1194127E+04  (-0.4770637E+04)
 number of electron     144.0000000 magnetization
 augmentation part      144.0000000 magnetization

 Free energy of the ion-electron system (eV)
  alpha Z        PSCENC =       170.45750602
  Ewald energy   TEWEN  =     11638.67556054
  -Hartree energ DENC   =    -17757.61955805
  -exchange      EXHF   =         0.00000000
  -V(xc)+E(xc)   XCENC  =        29.16428137
  PAW double counting   =      3700.71972520    -3383.50420208
  entropy T*S    EENTRO =         0.00000000
  eigenvalues    EBANDS =      -481.34110365
  atomic energy  EATOM  =      7277.57480299
  Solvation  Ediel_sol  =         0.00000000
  free energy    TOTEN  =      1194.12701233 eV

  energy without entropy =     1194.12701233  energy(sigma->0) =     1194.12701233

[...]

 eigenvalue-minimisations  :  3864
 total energy-change (2. order) :-0.1121815E+04  (-0.1093684E+04)
 number of electron     144.0000000 magnetization
 augmentation part      144.0000000 magnetization

[...]

 Broyden mixing:
  rms(total) = 0.92560E+00    rms(broyden)= 0.92559E+00
  rms(prec ) = 0.12016E+01
  weight for this iteration     100.00

[...]

 eigenvalues of (default mixing * dielectric matrix)
  average eigenvalue GAMMA=   1.5424
  1.5424

[...]

 eigenvalue-minimisations  :  2120
 total energy-change (2. order) : 0.1914987E-05  (-0.2905967E-06)
 number of electron     143.9999985 magnetization
 augmentation part      -17.7840694 magnetization

 Broyden mixing:
  rms(total) = 0.60792E-05    rms(broyden)= 0.60777E-05
  rms(prec ) = 0.99431E-05
  weight for this iteration     100.00

 eigenvalues of (default mixing * dielectric matrix)
  average eigenvalue GAMMA=   2.2179
  8.4779  7.4909  3.7290  3.5959  3.5959  2.4544  2.0107  2.0107  1.8630  0.8846
  0.8846  1.2440  1.2440  1.2271  1.2271  1.0660  1.0660  1.0305  0.9866  0.9866
  0.8587  0.8587

[...]

--------------------------------------- Iteration      1(  28)  ---------------------------------------

 BZINTS: Fermi energy: -0.610208;144.000000 electrons
         Band energy:***********;  BLOECHL correction:  0.000000

 eigenvalue-minimisations  :  2280
 total energy-change (2. order) :-0.5362745E-06  (-0.1294873E-06)
 number of electron     143.9999985 magnetization
 augmentation part      -17.7840694 magnetization

 Free energy of the ion-electron system (eV)
  alpha Z        PSCENC =       170.45750602
  Ewald energy   TEWEN  =     11638.67556054
  -Hartree energ DENC   =    -18056.31594006
  -exchange      EXHF   =         0.00000000
  -V(xc)+E(xc)   XCENC  =        36.64760279
  PAW double counting   =      3835.20762806    -3533.43024808
  entropy T*S    EENTRO =         0.00000000
  eigenvalues    EBANDS =     -1461.28501340
  atomic energy  EATOM  =      7277.57480299
  Solvation  Ediel_sol  =         0.00000000
  free energy    TOTEN  =       -92.46810114 eV

  energy without entropy =      -92.46810114  energy(sigma->0) =      -92.46810114

 average (electrostatic) potential at core
  the test charge radii are     1.2192  0.9892
  (the norm of the test charge is              1.0000)
       1 -43.5318       2 -43.5318       3 -41.9393       4 -41.9392       5 -42.5520
       6 -42.5521       7 -42.5602       8 -42.5603       9 -89.8110      10 -89.8110
      11 -90.2058      12 -90.2058      13 -89.8110      14 -89.8110      15 -90.2058
      16 -90.2058      17 -90.2999      18 -90.2999      19 -89.8115      20 -89.8115
      21 -89.9506      22 -89.9506      23 -90.2133      24 -90.2133

 E-fermi :  -0.6102     XC(G=0):  -4.4086     alpha+bet : -3.8451

 k-point     1 :       0.0000    0.0000    0.0000
  band No.  band energies     occupation
      1     -29.7400      2.00000
      2     -29.7400      2.00000
      3     -28.7923      2.00000
      4     -28.7922      2.00000
      5     -28.7781      2.00000
      6     -28.7763      2.00000
      7     -28.1967      2.00000
      8     -28.1959      2.00000
      9     -15.0333      2.00000
     10     -15.0328      2.00000
     11     -14.9628      2.00000
     12     -14.9626      2.00000
     13     -14.8889      2.00000
     14     -14.8888      2.00000
     15     -14.1807      2.00000
     16     -14.1796      2.00000
     17     -14.0992      2.00000
     18     -14.0809      2.00000
     19     -14.0351      2.00000
     20     -14.0330      2.00000
     21     -14.0108      2.00000
     22     -14.0065      2.00000
     23     -13.9912      2.00000
     24     -13.9902      2.00000
     25     -13.9881      2.00000
     26     -13.9653      2.00000
     27     -13.5286      2.00000
     28     -13.5038      2.00000
     29     -13.4623      2.00000
     30     -13.4553      2.00000
     31     -13.4487      2.00000
     32     -13.4393      2.00000
     33     -11.1253      2.00000
     34     -11.0738      2.00000
     35     -10.7600      2.00000
     36     -10.7329      2.00000
     37      -6.5004      2.00000
     38      -6.4779      2.00000
     39      -6.2957      2.00000
     40      -6.2838      2.00000
     41      -6.2751      2.00000
     42      -6.2745      2.00000
     43      -6.1238      2.00000
     44      -6.0857      2.00000
     45      -5.9597      2.00000
     46      -5.7851      2.00000
     47      -5.7820      2.00000
     48      -5.7773      2.00000
     49      -3.6109      2.00000
     50      -3.1911      2.00000
     51      -2.6724      2.00000
     52      -2.6705      2.00000
     53      -2.5386      2.00000
     54      -2.2694      2.00000
     55      -2.0484      2.00000
     56      -1.9897      2.00000
     57      -1.9140      2.00000
     58      -1.8758      2.00000
     59      -1.8555      2.00000
     60      -1.7691      2.00000
[...]
     74       0.1856      0.00000
     75       0.4720      0.00000
     76       0.6077      0.00000
     77       0.6174      0.00000
     78       0.6836      0.00000
     79       0.7904      0.00000
     80       1.0209      0.00000
     81       1.0684      0.00000
     82       1.1445      0.00000
     83       1.1517      0.00000
     84       1.2372      0.00000
     85       1.2819      0.00000
     86       1.3458      0.00000
     87       1.3465      0.00000
     88       1.5278      0.00000

[...]

 k-point    15 :       0.0000    0.5000    0.4000
  band No.  band energies     occupation
      1     -29.7399      2.00000
      2     -29.7399      2.00000
      3     -28.7923      2.00000
      4     -28.7923      2.00000
      5     -28.7770      2.00000
      6     -28.7770      2.00000
      7     -28.1964      2.00000
      8     -28.1964      2.00000
      9     -15.0301      2.00000
     10     -15.0301      2.00000
     11     -14.9678      2.00000
     12     -14.9678      2.00000
     13     -14.9020      2.00000
     14     -14.9020      2.00000
     15     -14.1744      2.00000
     16     -14.1744      2.00000
     17     -14.0990      2.00000
     18     -14.0990      2.00000
     19     -14.0463      2.00000
     20     -14.0463      2.00000
     21     -14.0211      2.00000
     22     -14.0211      2.00000
     23     -14.0038      2.00000
     24     -14.0038      2.00000
     25     -13.9725      2.00000
     26     -13.9725      2.00000
     27     -13.5129      2.00000
     28     -13.5129      2.00000
     29     -13.4628      2.00000
     30     -13.4628      2.00000
     31     -13.4403      2.00000
     32     -13.4403      2.00000
     33     -11.0498      2.00000
     34     -11.0498      2.00000
     35     -10.6923      2.00000
     36     -10.6923      2.00000
     37      -6.5796      2.00000
     38      -6.5796      2.00000
     39      -6.2796      2.00000
     40      -6.2795      2.00000
     41      -6.2123      2.00000
     42      -6.2122      2.00000
     43      -5.9770      2.00000
     44      -5.9769      2.00000
     45      -5.9350      2.00000
     46      -5.9349      2.00000
     47      -5.7983      2.00000
     48      -5.7983      2.00000
     49      -2.7858      2.00000
     50      -2.7858      2.00000
     51      -2.6423      2.00000
     52      -2.6422      2.00000
     53      -2.2551      2.00000
     54      -2.2551      2.00000
     55      -2.2065      2.00000
     56      -2.2065      2.00000
     57      -2.0262      2.00000
     58      -2.0262      2.00000
     59      -1.8231      2.00000
     60      -1.8231      2.00000
[...]
     74       0.1367      0.00000
     75       0.3770      0.00000
     76       0.3770      0.00000
     77       0.5845      0.00000
     78       0.5845      0.00000
     79       0.7224      0.00000
     80       0.7225      0.00000
     81       0.7855      0.00000
     82       0.7856      0.00000
     83       1.0683      0.00000
     84       1.0685      0.00000
     85       1.2590      0.00000
     86       1.2595      0.00000
     87       1.3975      0.00000
     88       1.3983      0.00000

 soft charge-density along one line, spin component           1
         0         1         2         3         4         5         6         7         8         9
 total charge-density along one line

------------------------ aborting loop because EDIFF is reached ----------------------------------------

  FORCE on cell =-STRESS in cart. coord.  units (eV):
  Direction    XX          YY          ZZ          XY          YZ          ZX
  Alpha Z   170.45751   170.45751   170.45751
  Ewald  -19401.82015 15788.30043 15252.18181    -0.00002     0.00000   135.66028
  Hartree-16330.00243 17401.48581 16984.83163     0.00000    -0.00000   103.31338
  E(xc)    -466.42150  -467.62776  -467.70396     0.00000     0.00000     0.06859
  Local   34314.62199-34626.36023-33665.57190     0.00001    -0.00000  -236.59801
  n-local   340.66690   340.56726   341.42495     0.06035    -0.20996    -1.52491
  augment  -167.39015  -167.76491  -167.64740     0.00000    -0.00000     0.31316
  Kinetic  1530.38119  1549.39316  1540.76786    -0.03640    -0.83368    -1.03582
  Fock        0.00000     0.00000     0.00000     0.00000     0.00000     0.00000
  Total      -9.50663   -11.54873   -11.25950     0.00000     0.00000     0.19667
  in kB      -8.06723    -9.80013    -9.55470     0.00000     0.00000     0.16689

 VOLUME and BASIS-vectors are now :
  energy-cutoff  :      500.00
  volume of cell :     1888.05
      direct lattice vectors                 reciprocal lattice vectors
    24.009468079  0.000000000  0.000000000     0.041650236  0.000000000  0.000000000
     0.000000000  6.777849674  0.000000000     0.000000000  0.147539419  0.000000000
     0.000000000  0.000000000 11.602143288     0.000000000  0.000000000  0.086190971

  length of vectors
    24.009468079  6.777849674 11.602143288     0.041650236  0.147539419  0.086190971

 FORCES acting on ions
    electron-ion (+dipol)            ewald-force                    non-local-force                 convergence-correction
   0.777E+03 0.101E-04 0.429E+02   -.772E+03 0.982E-05 -.421E+02   -.401E+01 0.138E-18 -.791E+00   0.245E-04 -.152E-09 -.962E-05
   -.777E+03 -.634E-04 -.429E+02   0.772E+03 -.127E-04 0.421E+02   0.401E+01 -.200E-18 0.791E+00   -.245E-04 0.866E-10 0.962E-05
   0.837E+02 -.610E-04 -.351E+02   -.835E+02 -.181E-04 0.338E+02   -.397E-03 -.912E-19 0.122E+01   0.246E-04 0.153E-09 -.217E-04
   -.837E+02 0.113E-04 0.351E+02   0.835E+02 0.128E-04 -.338E+02   0.397E-03 0.773E-19 -.122E+01   -.246E-04 -.225E-09 0.217E-04
   0.623E+03 -.613E-04 -.486E+02   -.620E+03 -.165E-04 0.491E+02   -.173E+01 0.332E-18 -.489E+00   0.999E-04 0.113E-09 -.290E-04
   -.623E+03 0.905E-05 0.486E+02   0.620E+03 0.144E-04 -.491E+02   0.173E+01 0.319E-18 0.489E+00   -.999E-04 -.179E-09 0.290E-04
   0.359E+03 0.119E-04 -.674E+01   -.358E+03 0.133E-04 0.609E+01   -.655E+00 -.118E-18 0.652E+00   0.830E-04 -.223E-09 -.436E-05
   -.359E+03 -.618E-04 0.674E+01   0.358E+03 -.135E-04 -.609E+01   0.655E+00 0.714E-18 -.652E+00   -.830E-04 0.173E-09 0.436E-05
   0.273E+03 0.349E+02 -.456E+02   -.273E+03 -.369E+02 0.466E+02   -.138E+00 0.201E+01 -.106E+01   0.691E-04 0.154E-04 -.137E-04
   -.273E+03 -.349E+02 0.456E+02   0.273E+03 0.369E+02 -.466E+02   0.138E+00 -.201E+01 0.106E+01   -.691E-04 -.154E-04 0.137E-04
   0.121E+03 -.308E+02 0.217E+01   -.121E+03 0.324E+02 -.870E+00   -.294E+00 -.165E+01 -.130E+01   0.311E-04 -.380E-05 0.244E-05
   -.121E+03 0.308E+02 -.217E+01   0.121E+03 -.324E+02 0.870E+00   0.294E+00 0.165E+01 0.130E+01   -.311E-04 0.380E-05 -.244E-05
   -.273E+03 0.349E+02 0.456E+02   0.273E+03 -.369E+02 -.466E+02   0.138E+00 0.201E+01 0.106E+01   -.691E-04 0.154E-04 0.137E-04
   0.273E+03 -.349E+02 -.456E+02   -.273E+03 0.369E+02 0.466E+02   -.138E+00 -.201E+01 -.106E+01   0.691E-04 -.154E-04 -.137E-04
   -.121E+03 -.308E+02 -.217E+01   0.121E+03 0.324E+02 0.870E+00   0.294E+00 -.165E+01 0.130E+01   -.311E-04 -.380E-05 -.244E-05
   0.121E+03 0.308E+02 0.217E+01   -.121E+03 -.324E+02 -.870E+00   -.294E+00 0.165E+01 -.130E+01   0.311E-04 0.380E-05 0.244E-05
   0.328E+03 -.239E-05 0.455E+02   -.330E+03 -.608E-05 -.460E+02   0.163E+01 -.384E-18 0.465E+00   0.244E-04 0.726E-10 0.109E-04
   -.328E+03 0.568E-05 -.455E+02   0.330E+03 0.628E-05 0.460E+02   -.163E+01 0.417E-18 -.465E+00   -.244E-04 -.513E-10 -.109E-04
   0.335E+02 0.907E-05 -.103E+02   -.315E+02 0.752E-05 0.969E+01   -.174E+01 -.159E-18 0.635E+00   0.135E-04 -.705E-10 -.313E-05
   -.335E+02 -.444E-05 0.103E+02   0.315E+02 -.721E-05 -.969E+01   0.174E+01 -.139E-18 -.635E+00   -.135E-04 0.833E-10 0.312E-05
   0.239E+03 0.408E-05 0.107E+02   -.239E+03 0.806E-05 -.125E+02   -.290E+00 0.302E-19 0.181E+01   0.590E-04 -.597E-10 0.123E-04
   -.239E+03 -.583E-05 -.107E+02   0.239E+03 -.812E-05 0.125E+02   0.290E+00 -.311E-18 -.181E+01   -.590E-04 0.757E-10 -.123E-04
   0.156E+03 -.785E-05 0.576E+02   -.156E+03 -.760E-05 -.598E+02   -.854E+00 -.237E-17 0.223E+01   0.342E-04 0.886E-10 0.921E-05
   -.156E+03 0.530E-05 -.576E+02   0.156E+03 0.742E-05 0.598E+02   0.854E+00 0.225E-17 -.223E+01   -.342E-04 -.734E-10 -.920E-05
   -.377E-03 -.213E-03 0.856E-04   0.711E-12 -.508E-14 -.142E-13   0.000E+00 0.665E-15 0.444E-15   0.406E-07 -.157E-09 -.268E-08

 POSITION                                       TOTAL-FORCE (eV/Angst)
      0.13670      1.69446      8.17572         0.744456     -0.000000      0.000258
      9.17277      5.08339      3.42643        -0.744456     -0.000000     -0.000258
      4.36803      5.08339      2.16609         0.228281     -0.000000     -0.000009
      4.94143      1.69446      9.43605        -0.228281      0.000000      0.000009
      1.43529      5.08339     10.63205         0.693222     -0.000000     -0.000190
      7.87418      1.69446      0.97010        -0.693222      0.000000      0.000190
      3.06944      1.69446      4.62002         0.469052     -0.000000      0.000722
      6.24002      5.08339      6.98213        -0.469052      0.000000     -0.000722
      1.75027      0.48652      1.67094        -0.161464     -0.000381      0.000326
      7.55920      6.29133      9.93121         0.161464      0.000381     -0.000326
      2.75446      6.30106      7.64492         0.255588      0.000698     -0.000158
      6.55500      0.47679      3.95723        -0.255588     -0.000698      0.000158
      7.55920      3.87545      9.93121         0.161464     -0.000381     -0.000326
      1.75027      2.90240      1.67094        -0.161464      0.000381      0.000326
      6.55500      2.91214      3.95723        -0.255588      0.000698      0.000158
      2.75446      3.86571      7.64492         0.255588     -0.000698     -0.000158
      0.74693      5.08339      6.95226        -0.321910      0.000000      0.000373
      8.56254      1.69446      4.64988         0.321910     -0.000000     -0.000373
      3.75780      1.69446      0.95520         0.356833      0.000000      0.000462
      5.55166      5.08339     10.64694        -0.356833     -0.000000     -0.000462
      1.78112      1.69446     11.14554        -0.214273      0.000000      0.000396
      7.52835      5.08339      0.45661         0.214273     -0.000000     -0.000396
      2.72362      5.08339      5.51991        -0.137891     -0.000000      0.000495
      6.58585      1.69446      6.08224         0.137891      0.000000     -0.000495
    total drift:                               -0.000377     -0.000213      0.000086

  FREE ENERGIE OF THE ION-ELECTRON SYSTEM (eV)
  free  energy   TOTEN  =       -92.46810114 eV

  energy  without entropy=      -92.46810114  energy(sigma->0) =      -92.46810114

 writing wavefunctions
 BZINTS: Fermi energy: -0.610208;144.000000 electrons
         Band energy:***********;  BLOECHL correction:  0.000000