 vasp.5.4.4.18Apr17-6-g9f103f2a35 (build Nov 21 2017 15:30:27) complex

 executed on             LinuxIFC date 2020.12.16  19:52:49

 INCAR:
 POTCAR:   PAW_PBE Sr_sv 07Sep2000
 POTCAR:   PAW_PBE Si 05Jan2001

 POTCAR:   PAW_PBE Sr_sv 07Sep2000
   VRHFIN =Sr: 4s4p5s

   TITEL  = PAW_PBE Sr_sv 07Sep2000
   POMASS =   87.620; ZVAL   =   10.000    mass and valenz
   ENMAX  =  229.282; ENMIN  =  171.961 eV
   QCUT   =   -4.105; QGAM   =    8.210    optimization parameters

   Description
     l     E      TYP  RCUT    TYP  RCUT
     0   .000     23  2.480
     0   .000     23  2.480
     1   .000     23  2.500
     1   .000     23  2.500
     2   .000     23  2.500
     2   .000     23  2.500

 POTCAR:   PAW_PBE Si 05Jan2001
   VRHFIN =Si: s2p2

   TITEL  = PAW_PBE Si 05Jan2001
   POMASS =   28.085; ZVAL   =    4.000    mass and valenz
   ENMAX  =  245.345; ENMIN  =  184.009 eV
   QCUT   =   -4.246; QGAM   =    8.493    optimization parameters

   Description
     l     E      TYP  RCUT    TYP  RCUT
     0   .000     23  1.900
     0   .000     23  1.900
     1   .000     23  1.900
     1   .000     23  1.900
     2   .000      7  1.900

 Optimization of the real space projectors (new method)

 maximal supplied QI-value         = 15.12
 optimisation between [QCUT,QGAM] = [ 11.34, 22.83] = [ 36.00,145.93] Ry
 Optimized for a Real-space Cutoff    1.56 Angstroem

   l    n(q)    QCUT    max X(q) W(low)/X(q) W(high)/X(q)  e(spline)
   0     11    11.338     6.584    0.15E-04    0.24E-05    0.13E-07
   0     11    11.338    11.383    0.41E-04    0.15E-04    0.15E-06
   1     10    11.338     3.802    0.90E-05    0.33E-06    0.26E-07
   1     10    11.338    39.081    0.19E-03    0.53E-04    0.42E-06
   2     10    11.338     4.950    0.16E-04    0.40E-04    0.77E-07
   2     10    11.338    88.754    0.21E-03    0.41E-03    0.42E-06
 Optimization of the real space projectors (new method)

 maximal supplied QI-value         = 19.84
 optimisation between [QCUT,QGAM] = [ 11.31, 22.82] = [ 35.82,145.81] Ry
 Optimized for a Real-space Cutoff    1.16 Angstroem

   l    n(q)    QCUT    max X(q) W(low)/X(q) W(high)/X(q)  e(spline)
   0      8    11.310     8.708    0.14E-04    0.11E-04    0.43E-08
   0      8    11.310   106.241    0.27E-03    0.30E-03    0.38E-07
   1      7    11.310     5.901    0.82E-05    0.48E-04    0.19E-07
   1      7    11.310    73.241    0.27E-03    0.27E-03    0.74E-07
 PAW_PBE Sr_sv 07Sep2000                :
 PAW_PBE Si 05Jan2001                   :

 POSCAR: sr8 si16
  positions in cartesian coordinates
 exchange correlation table for  LEXCH =        8
   RHO(1)=    0.500       N(1)  =     2000
   RHO(2)=  100.500       N(2)  =     4000

 ion  position               nearest neighbor table
   1  0.015  0.250  0.691-  24 3.40  18 3.40  13 3.45  10 3.45  16 3.45  11 3.45  21 3.60  17 3.63
                            17 3.63   5 4.41   5 4.41   7 4.42   4 4.71   4 4.71   8 4.80   8 4.80
   2  0.985  0.750  0.309-  23 3.40  17 3.40   9 3.45  14 3.45  12 3.45  15 3.45  22 3.60  18 3.63
                            18 3.63   6 4.41   6 4.41   8 4.42   3 4.71   3 4.71   7 4.80   7 4.80
   3  0.485  0.750  0.191-  22 3.40  20 3.40  12 3.45  15 3.45   9 3.45  14 3.45  23 3.60  19 3.63
                            19 3.63   7 4.41   7 4.41   5 4.42   2 4.71   2 4.71   6 4.80   6 4.80
   4  0.515  0.250  0.809-  21 3.40  19 3.40  16 3.45  11 3.45  13 3.45  10 3.45  24 3.60  20 3.63
                            20 3.63   8 4.41   8 4.41   6 4.42   1 4.71   1 4.71   5 4.80   5 4.80
   5  0.159  0.750  0.907-  10 3.46  13 3.46  21 3.48  21 3.48  11 3.50  16 3.50  22 3.54   9 3.55
                            14 3.55  17 3.71  20 3.82   1 4.41   1 4.41   3 4.42   4 4.80   4 4.80
   6  0.841  0.250  0.093-  14 3.46   9 3.46  22 3.48  22 3.48  15 3.50  12 3.50  21 3.54  13 3.55
                            10 3.55  18 3.71  19 3.82   2 4.41   2 4.41   4 4.42   3 4.80   3 4.80
   7  0.341  0.250  0.407-  15 3.46  12 3.46  23 3.48  23 3.48  14 3.50   9 3.50  24 3.54  16 3.55
                            11 3.55  19 3.71  18 3.82   3 4.41   3 4.41   1 4.42   2 4.80   2 4.80
   8  0.659  0.750  0.593-  11 3.46  16 3.46  24 3.48  24 3.48  10 3.50  13 3.50  23 3.54  12 3.55
                            15 3.55  20 3.71  17 3.82   4 4.41   4 4.41   2 4.42   1 4.80   1 4.80
   9  0.194  0.073  0.147-  14 2.41  21 2.41  19 2.42   2 3.45   3 3.45   6 3.46   7 3.50   5 3.55

  10  0.806  0.927  0.853-  13 2.41  22 2.41  20 2.42   1 3.45   4 3.45   5 3.46   8 3.50   6 3.55

[...]

  24  0.698  0.250  0.533-  15 2.41  12 2.41  18 2.45   1 3.40   8 3.48   8 3.48   7 3.54   4 3.60

  LATTYP: Found a simple orthorhombic cell.
 ALAT       =     6.7778496742
 B/A-ratio  =     1.3292516818
 C/A-ratio  =     1.7117734747

  Lattice vectors:

 A1 = (   0.0000000000,  -6.7778496742,   0.0000000000)
 A2 = (  -9.0094680786,   0.0000000000,   0.0000000000)
 A3 = (   0.0000000000,   0.0000000000, -11.6021432877)

Analysis of symmetry for initial positions (statically):
 Subroutine PRICEL returns:
 Original cell was already a primitive cell.

 Routine SETGRP: Setting up the symmetry group for a
 simple orthorhombic supercell.

 Subroutine GETGRP returns: Found  8 space group operations
 (whereof  2 operations were pure point group operations)
 out of a pool of  8 trial point group operations.

The static configuration has the point symmetry S_2 .
 The point group associated with its full space group is D_2h.

Analysis of symmetry for dynamics (positions and initial velocities):
 Subroutine PRICEL returns:
 Original cell was already a primitive cell.

 Routine SETGRP: Setting up the symmetry group for a
 simple orthorhombic supercell.

 Subroutine GETGRP returns: Found  8 space group operations
 (whereof  2 operations were pure point group operations)
 out of a pool of  8 trial point group operations.

The dynamic configuration has the point symmetry S_2 .
 The point group associated with its full space group is D_2h.

 Subroutine INISYM returns: Found  8 space group operations
 (whereof  2 operations are pure point group operations),
 and found     1 'primitive' translations

 KPOINTS: k-density: 6.0

Automatic generation of k-mesh.
Space group operators:
 irot       det(A)        alpha          n_x          n_y          n_z        tau_x        tau_y        tau_z
    1     1.000000     0.000000     1.000000     0.000000     0.000000     0.000000     0.000000     0.000000
    2    -1.000000     0.000000     1.000000     0.000000     0.000000     0.000000     0.000000     0.000000
    3     1.000000   180.000000     0.000000     0.000000     1.000000    -0.500000     0.000000    -0.500000
    4    -1.000000   180.000000     0.000000     0.000000     1.000000    -0.500000     0.000000    -0.500000
    5     1.000000   180.000000     1.000000     0.000000     0.000000    -0.500000    -0.500000    -0.500000
    6    -1.000000   180.000000     1.000000     0.000000     0.000000    -0.500000    -0.500000    -0.500000
    7     1.000000   180.000000     0.000000     1.000000     0.000000    -0.000000    -0.500000    -0.000000
    8    -1.000000   180.000000     0.000000     1.000000     0.000000     0.000000    -0.500000     0.000000

 Subroutine IBZKPT returns following result:

 Found     36 irreducible k-points:

 Following reciprocal coordinates:
            Coordinates               Weight
  0.000000  0.000000  0.000000      1.000000
  0.200000  0.000000  0.000000      2.000000
  0.400000  0.000000  0.000000      2.000000
  0.000000  0.166667  0.000000      2.000000
  0.200000  0.166667  0.000000      4.000000
  0.400000  0.166667  0.000000      4.000000
  0.000000  0.333333  0.000000      2.000000
  0.200000  0.333333  0.000000      4.000000
  0.400000  0.333333  0.000000      4.000000
  0.000000  0.500000  0.000000      1.000000
  0.200000  0.500000  0.000000      2.000000
  0.400000  0.500000  0.000000      2.000000
  0.000000  0.000000  0.250000      2.000000
  0.200000  0.000000  0.250000      4.000000
  0.400000  0.000000  0.250000      4.000000
  0.000000  0.166667  0.250000      4.000000
  0.200000  0.166667  0.250000      8.000000
  0.400000  0.166667  0.250000      8.000000
  0.000000  0.333333  0.250000      4.000000
  0.200000  0.333333  0.250000      8.000000
  0.400000  0.333333  0.250000      8.000000
  0.000000  0.500000  0.250000      2.000000
  0.200000  0.500000  0.250000      4.000000
  0.400000  0.500000  0.250000      4.000000
  0.000000  0.000000  0.500000      1.000000
  0.200000  0.000000  0.500000      2.000000
  0.400000  0.000000  0.500000      2.000000
  0.000000  0.166667  0.500000      2.000000
  0.200000  0.166667  0.500000      4.000000
  0.400000  0.166667  0.500000      4.000000
  0.000000  0.333333  0.500000      2.000000
  0.200000  0.333333  0.500000      4.000000
  0.400000  0.333333  0.500000      4.000000
  0.000000  0.500000  0.500000      1.000000
  0.200000  0.500000  0.500000      2.000000
  0.400000  0.500000  0.500000      2.000000

 Following cartesian coordinates:
            Coordinates               Weight
  0.000000  0.000000  0.000000      1.000000
  0.022199  0.000000  0.000000      2.000000
  0.044398  0.000000  0.000000      2.000000
  0.000000  0.024590  0.000000      2.000000
  0.022199  0.024590  0.000000      4.000000
  0.044398  0.024590  0.000000      4.000000
  0.000000  0.049180  0.000000      2.000000
  0.022199  0.049180  0.000000      4.000000
  0.044398  0.049180  0.000000      4.000000
  0.000000  0.073770  0.000000      1.000000
  0.022199  0.073770  0.000000      2.000000
  0.044398  0.073770  0.000000      2.000000
  0.000000  0.000000  0.021548      2.000000
  0.022199  0.000000  0.021548      4.000000
  0.044398  0.000000  0.021548      4.000000
  0.000000  0.024590  0.021548      4.000000
  0.022199  0.024590  0.021548      8.000000
  0.044398  0.024590  0.021548      8.000000
  0.000000  0.049180  0.021548      4.000000
  0.022199  0.049180  0.021548      8.000000
  0.044398  0.049180  0.021548      8.000000
  0.000000  0.073770  0.021548      2.000000
  0.022199  0.073770  0.021548      4.000000
  0.044398  0.073770  0.021548      4.000000
  0.000000  0.000000  0.043095      1.000000
  0.022199  0.000000  0.043095      2.000000
  0.044398  0.000000  0.043095      2.000000
  0.000000  0.024590  0.043095      2.000000
  0.022199  0.024590  0.043095      4.000000
  0.044398  0.024590  0.043095      4.000000
  0.000000  0.049180  0.043095      2.000000
  0.022199  0.049180  0.043095      4.000000
  0.044398  0.049180  0.043095      4.000000
  0.000000  0.073770  0.043095      1.000000
  0.022199  0.073770  0.043095      2.000000
  0.044398  0.073770  0.043095      2.000000

 TETIRR: Found    360 inequivalent tetrahedra from      720

 SYSTEM =  unknown system
 POSCAR =  sr8 si16

 Startparameter for this run:
   NWRITE =      2    write-flag & timer
   PREC   = normal    normal or accurate (medium, high low for compatibility)
   ISTART =      0    job   : 0-new  1-cont  2-samecut
   ICHARG =      2    charge: 1-file 2-atom 10-const
   ISPIN  =      1    spin polarized calculation?
   LNONCOLLINEAR =      F non collinear calculations
[...]
      6.25500      0.49167      4.09853        -0.051129     -0.316657     -0.125864
      7.25920      3.88060      9.89960         0.051129     -0.316657     -0.125864
      1.75027      2.89725      1.70254        -0.051129      0.316657      0.125864
      6.25500      2.89725      4.09853        -0.051129      0.316657     -0.125864
      2.75446      3.88060      7.50362         0.051129     -0.316657      0.125864
      0.74693      5.08339      6.86848        -0.164606     -0.000000     -0.146084
      8.26254      1.69446      4.73366         0.164606     -0.000000      0.146084
      3.75780      1.69446      1.06741         0.164606     -0.000000     -0.146084
      5.25166      5.08339     10.53473        -0.164606     -0.000000      0.146084
      1.78112      1.69446     11.21858         0.065890     -0.000000     -0.333327
      7.22835      5.08339      0.38357        -0.065890     -0.000000      0.333327
      2.72362      5.08339      5.41750        -0.065890     -0.000000     -0.333327
      6.28585      1.69446      6.18464         0.065890     -0.000000      0.333327
    total drift:                               -0.000362      0.000513      0.000061

  FREE ENERGIE OF THE ION-ELECTRON SYSTEM (eV)
  free  energy   TOTEN  =      -110.65750578 eV

  energy  without entropy=     -110.65750578  energy(sigma->0) =     -110.65750578

[...]

 E-fermi :   3.8173     XC(G=0):  -8.9419     alpha+bet :-10.3243

[...]

         DFTD3 V3.0 Rev 1
 Edisp (eV)   -4.13801

[...]

 d Force = 0.1547662E+00[ 0.229E+00, 0.810E-01]  d Energy = 0.1245873E+01-0.109E+01
 d Force = 0.8168235E+01[ 0.821E+01, 0.813E+01]  d Ewald  = 0.2505492E+03-0.242E+03

 Steepest descent step on ions:
 trial-energy change:   -1.245873  1 .order   -1.195942   -2.082917   -0.308968
  (g-gl).g = 0.208E+01      g.g   = 0.208E+01  gl.gl    = 0.000E+00
 g(Force)  = 0.841E-01   g(Stress)= 0.200E+01 ortho     = 0.000E+00
 gamma     =   0.00000
 trial     =   1.00000
 opt step  =   1.14593  (harmonic =   1.17417) maximal distance =0.01842721
 next E    =  -111.926078   (d E  =  -1.26857)

[...]

 d Force = 0.3628199E-01[ 0.381E-01, 0.344E-01]  d Energy = 0.2287571E-01 0.134E-01
 d Force = 0.1237437E+01[ 0.124E+01, 0.124E+01]  d Ewald  = 0.3816232E+02-0.369E+02

[...]

 d Force = 0.5509831E+00[-0.140E+00, 0.124E+01]  d Energy = 0.4502514E+00 0.101E+00
 d Force = 0.3814177E+02[ 0.327E+02, 0.436E+02]  d Ewald  = 0.1420004E+03-0.104E+03

 Conjugate gradient step on ions:
 trial-energy change:   -0.450251  1 .order   -0.476978   -1.156716    0.202760
  (g-gl).g = 0.111E+01      g.g   = 0.112E+01  gl.gl    = 0.208E+01
 g(Force)  = 0.109E+01   g(Stress)= 0.326E-01 ortho     = 0.982E-02
 gamma     =   0.53236
 trial     =   1.02919
 opt step  =   0.85893  (harmonic =   0.87569) maximal distance =0.05436994
 next E    =  -112.393398   (d E  =  -0.46714)

[...]

 d Force = 0.6413046E-02[-0.108E-01, 0.237E-01]  d Energy = 0.1670414E-01-0.103E-01
 d Force =-0.5662556E+01[-0.581E+01,-0.551E+01]  d Ewald  =-0.2305444E+02 0.174E+02

[...]

 d Force = 0.7615983E-02[ 0.469E-02, 0.105E-01]  d Energy = 0.1117672E-01-0.356E-02
 d Force = 0.1241164E+00[ 0.106E+00, 0.142E+00]  d Ewald  =-0.2270945E+02 0.228E+02

 Conjugate gradient step on ions:
 trial-energy change:   -0.011177  1 .order   -0.011052   -0.024737    0.002634
  (g-gl).g =-0.545E-01      g.g   = 0.251E-01  gl.gl    = 0.112E+01
 g(Force)  = 0.136E-01   g(Stress)= 0.115E-01 ortho     = 0.526E-02
 gamma     =  -0.04871
 trial     =   0.99513
 opt step  =   0.90170  (harmonic =   0.89938) maximal distance =0.00557390
 next E    =  -112.404510   (d E  =  -0.01130)

 real space projection operators:
  max/ min on nodes  :       1316.19       1209.34

[...]

 eigenvalue-minimisations  :  7640
 total energy-change (2. order) : 0.1361589E-03  (-0.6267644E-04)
 number of electron     143.9999985 magnetization
 augmentation part        0.4412497 magnetization

[...]

 Broyden mixing:
  rms(total) = 0.13649E-02    rms(broyden)= 0.13649E-02
  rms(prec ) = 0.15799E-02
  weight for this iteration     100.00

 eigenvalues of (default mixing * dielectric matrix)
  average eigenvalue GAMMA=   0.8575
  1.7303  0.8282  0.0139

[...]

--------------------------------------- Iteration      7(   5)  ---------------------------------------

 BZINTS: Fermi energy:  4.258733;144.000000 electrons
         Band energy:***********;  BLOECHL correction:  0.000000

 eigenvalue-minimisations  :  4760
 total energy-change (2. order) :-0.9785999E-06  (-0.1098931E-06)
 number of electron     143.9999985 magnetization
 augmentation part        0.4387576 magnetization

 Free energy of the ion-electron system (eV)
  alpha Z        PSCENC =       389.04001033
  Ewald energy   TEWEN  =     -6761.60928861
  -Hartree energ DENC   =     -1506.50881969
  -exchange      EXHF   =         0.00000000
  -V(xc)+E(xc)   XCENC  =       134.23143505
  PAW double counting   =      4698.50086040    -4347.68389584
  entropy T*S    EENTRO =         0.00000000
  eigenvalues    EBANDS =     -1102.77779511
  atomic energy  EATOM  =      8388.70021833
  Solvation  Ediel_sol  =         0.00000000
  free energy    TOTEN  =      -108.10727515 eV

  energy without entropy =     -108.10727515  energy(sigma->0) =     -108.10727515

 average (electrostatic) potential at core
  the test charge radii are     1.1929  0.9892
  (the norm of the test charge is              1.0000)
       1 -36.8823       2 -36.8823       3 -36.8823       4 -36.8823       5 -37.1383
       6 -37.1383       7 -37.1382       8 -37.1383       9 -84.6460      10 -84.6460
      11 -84.6460      12 -84.6460      13 -84.6460      14 -84.6460      15 -84.6460
      16 -84.6460      17 -84.7034      18 -84.7034      19 -84.7034      20 -84.7034
      21 -84.5838      22 -84.5838      23 -84.5838      24 -84.5838

 E-fermi :   4.2587     XC(G=0):  -9.1612     alpha+bet :-10.8101

[...]

 k-point    36 :       0.4000    0.5000    0.5000
  band No.  band energies     occupation
      1     -31.0206      2.00000
      2     -31.0206      2.00000
      3     -31.0205      2.00000
      4     -31.0205      2.00000
      5     -30.7904      2.00000
      6     -30.7904      2.00000
      7     -30.7894      2.00000
      8     -30.7894      2.00000
      9     -13.1854      2.00000
     10     -13.1854      2.00000
     11     -13.1841      2.00000
     12     -13.1841      2.00000
     13     -13.1700      2.00000
     14     -13.1700      2.00000
     15     -13.1688      2.00000
     16     -13.1688      2.00000
     17     -13.1201      2.00000
     18     -13.1201      2.00000
     19     -13.1178      2.00000
     20     -13.1178      2.00000
     21     -12.9626      2.00000
     22     -12.9626      2.00000
     23     -12.9477      2.00000
     24     -12.9477      2.00000
     25     -12.9244      2.00000
     26     -12.9244      2.00000
     27     -12.9163      2.00000
     28     -12.9163      2.00000
     29     -12.9152      2.00000
     30     -12.9152      2.00000
     31     -12.9117      2.00000
     32     -12.9117      2.00000
     33      -6.7687      2.00000
     34      -6.7687      2.00000
     35      -6.7476      2.00000
     36      -6.7476      2.00000
     37      -2.5211      2.00000
     38      -2.5211      2.00000
     39      -2.3909      2.00000
     40      -2.3909      2.00000
     41      -1.8264      2.00000
     42      -1.8264      2.00000
     43      -1.7877      2.00000
     44      -1.7877      2.00000
     45      -1.6364      2.00000
     46      -1.6364      2.00000
     47      -1.5770      2.00000
     48      -1.5770      2.00000
     49       1.1587      2.00000
     50       1.1587      2.00000
     51       1.3634      2.00000
     52       1.3634      2.00000
     53       1.8671      2.00000
     54       1.8671      2.00000
     55       2.0537      2.00000
     56       2.0537      2.00000
     57       2.4582      2.00000
     58       2.4582      2.00000
     59       2.5294      2.00000
     60       2.5294      2.00000
[...]
     74       4.9324      0.00000
     75       5.1448      0.00000
     76       5.1448      0.00000
     77       5.2921      0.00000
     78       5.2921      0.00000
     79       5.4371      0.00000
     80       5.4371      0.00000
     81       6.1236      0.00000
     82       6.1236      0.00000
     83       6.3774      0.00000
     84       6.3774      0.00000
     85       6.7128      0.00000
     86       6.7128      0.00000
     87       6.9207      0.00000
     88       6.9207      0.00000

 soft charge-density along one line, spin component           1
         0         1         2         3         4         5         6         7         8         9
 total charge-density along one line

------------------------ aborting loop because EDIFF is reached ----------------------------------------

         DFTD3 V3.0 Rev 1
 Edisp (eV)   -4.29721

 E6    (eV) :    -1.7989
 E8    (eV) :    -2.4983
 % E8        : 58.14

  FORCE on cell =-STRESS in cart. coord.  units (eV):
  Direction    XX          YY          ZZ          XY          YZ          ZX
  Alpha Z   389.04001   389.04001   389.04001
  Ewald   -2269.27278 -2248.08456 -2244.27121    -0.00000    -0.00000    -0.00013
  Hartree   491.52345   510.05874   505.01452    -0.00000    -0.00000    -0.00000
  E(xc)    -499.98332  -499.87158  -499.82575    -0.00000    -0.00000    -0.00000
  Local     187.36891   153.21406   156.02521     0.00000     0.00000     0.00010
  n-local   232.51368   228.53562   229.39652    -0.12593    -0.14793    -0.13371
  augment   -70.02845   -68.85920   -69.14513     0.00000    -0.00000    -0.00000
  Kinetic  1542.33436  1539.96374  1537.37544     1.14279    -1.24704     0.24106
  Fock        0.00000     0.00000     0.00000     0.00000     0.00000     0.00000
  vdW        -4.15858    -4.24206    -4.26966     0.00000    -0.00000     0.00000
  Total      -0.66272    -0.24523    -0.66004     0.00000     0.00000     0.00000
  in kB      -1.75486    -0.64935    -1.74776     0.00000     0.00000     0.00000

 VOLUME and BASIS-vectors are now :
  energy-cutoff  :      500.00
  volume of cell :      605.06
      direct lattice vectors                 reciprocal lattice vectors
     8.573760898  0.000000000  0.000000000     0.116634930 -0.000000000  0.000000000
     0.000000000  6.413545305  0.000000000    -0.000000000  0.155920002  0.000000000
     0.000000000  0.000000000 11.003438451     0.000000000  0.000000000  0.090880683

  length of vectors
     8.573760898  6.413545305 11.003438451     0.116634930  0.155920002  0.090880683

 FORCES acting on ions
    electron-ion (+dipol)            ewald-force                    non-local-force                 convergence-correction
   0.231E+01 0.953E-04 0.565E+01   -.268E+01 0.153E-04 -.607E+01   0.417E+00 -.109E-17 0.485E+00   0.710E-03 -.169E-07 -.404E-03
   -.231E+01 0.131E-04 -.565E+01   0.268E+01 -.216E-04 0.607E+01   -.417E+00 -.128E-17 -.485E+00   -.710E-03 -.415E-08 0.404E-03
   -.231E+01 0.767E-05 0.565E+01   0.268E+01 -.216E-04 -.607E+01   -.417E+00 0.772E-18 0.485E+00   -.710E-03 -.374E-08 -.405E-03
   0.231E+01 0.899E-04 -.565E+01   -.268E+01 0.153E-04 0.607E+01   0.417E+00 0.826E-19 -.485E+00   0.710E-03 -.165E-07 0.405E-03
   -.228E+02 0.112E-04 -.527E+01   0.219E+02 -.196E-04 0.543E+01   0.855E+00 -.107E-17 -.153E+00   0.223E-03 -.272E-08 -.715E-03
   0.228E+02 0.925E-04 0.527E+01   -.219E+02 0.187E-04 -.543E+01   -.855E+00 0.673E-18 0.153E+00   -.223E-03 -.149E-07 0.715E-03
   0.228E+02 0.912E-04 -.527E+01   -.219E+02 0.187E-04 0.543E+01   -.855E+00 -.327E-18 -.153E+00   -.223E-03 -.135E-07 -.715E-03
   -.228E+02 0.998E-05 0.527E+01   0.219E+02 -.196E-04 -.543E+01   0.855E+00 0.123E-18 0.153E+00   0.223E-03 -.132E-08 0.715E-03
   0.832E+01 0.250E+02 -.140E+02   -.876E+01 -.261E+02 0.147E+02   0.477E+00 0.114E+01 -.731E+00   0.571E-03 0.114E-02 -.431E-03
   -.832E+01 -.250E+02 0.140E+02   0.876E+01 0.261E+02 -.147E+02   -.477E+00 -.114E+01 0.731E+00   -.571E-03 -.114E-02 0.431E-03
   -.832E+01 -.250E+02 -.140E+02   0.876E+01 0.261E+02 0.147E+02   -.477E+00 -.114E+01 -.731E+00   -.571E-03 -.114E-02 -.431E-03
   0.832E+01 0.250E+02 0.140E+02   -.876E+01 -.261E+02 -.147E+02   0.477E+00 0.114E+01 0.731E+00   0.571E-03 0.114E-02 0.431E-03
   -.832E+01 0.250E+02 0.140E+02   0.876E+01 -.261E+02 -.147E+02   -.477E+00 0.114E+01 0.731E+00   -.571E-03 0.114E-02 0.431E-03
   0.832E+01 -.250E+02 -.140E+02   -.876E+01 0.261E+02 0.147E+02   0.477E+00 -.114E+01 -.731E+00   0.571E-03 -.114E-02 -.431E-03
   0.832E+01 -.250E+02 0.140E+02   -.876E+01 0.261E+02 -.147E+02   0.477E+00 -.114E+01 0.731E+00   0.571E-03 -.114E-02 0.431E-03
   -.832E+01 0.250E+02 -.140E+02   0.876E+01 -.261E+02 0.147E+02   -.477E+00 0.114E+01 -.731E+00   -.571E-03 0.114E-02 -.431E-03
   0.388E+02 -.108E-04 0.641E+00   -.405E+02 -.875E-05 -.159E+01   0.171E+01 -.299E-18 0.979E+00   0.873E-03 0.103E-08 -.482E-05
   -.388E+02 -.309E-05 -.641E+00   0.405E+02 0.892E-05 0.159E+01   -.171E+01 -.162E-18 -.979E+00   -.873E-03 0.960E-09 0.481E-05
   -.388E+02 0.742E-05 0.641E+00   0.405E+02 0.892E-05 -.159E+01   -.171E+01 0.112E-17 0.979E+00   -.873E-03 0.122E-08 -.482E-05
   0.388E+02 -.259E-06 -.641E+00   -.405E+02 -.875E-05 0.159E+01   0.171E+01 -.277E-18 -.979E+00   0.873E-03 0.129E-08 0.482E-05
   0.623E+01 -.508E-05 0.288E+02   -.599E+01 0.959E-05 -.302E+02   -.268E+00 0.112E-17 0.126E+01   0.654E-03 0.848E-09 0.118E-02
   -.623E+01 -.116E-04 -.288E+02   0.599E+01 -.101E-04 0.302E+02   0.268E+00 0.558E-18 -.126E+01   -.654E-03 0.990E-09 -.118E-02
   -.623E+01 0.411E-06 0.288E+02   0.599E+01 -.101E-04 -.302E+02   0.268E+00 -.304E-17 0.126E+01   -.654E-03 0.111E-09 0.118E-02
   0.623E+01 0.695E-05 -.288E+02   -.599E+01 0.959E-05 0.302E+02   -.268E+00 -.292E-17 -.126E+01   0.654E-03 -.296E-10 -.118E-02
   -.331E-03 0.458E-03 0.472E-04   0.275E-13 0.295E-13 0.355E-14   -.555E-16 -.226E-15 0.000E+00   0.526E-07 -.670E-07 0.917E-09

 POSITION                                       TOTAL-FORCE (eV/Angst)
      0.12738      1.60339      7.61373         0.054661      0.000000      0.038883
      8.44638      4.81016      3.38971        -0.054661     -0.000000     -0.038883
      4.15950      4.81016      2.11201        -0.054661     -0.000000      0.038883
      4.41426      1.60339      8.89142         0.054661      0.000000     -0.038883
      1.35333      4.81016      9.97511        -0.002765     -0.000000     -0.010332
      7.22043      1.60339      1.02832         0.002765      0.000000      0.010332
      2.93355      1.60339      4.47340         0.002765     -0.000000     -0.010332
      5.64021      4.81016      6.53004        -0.002765     -0.000000      0.010332
      1.64892      0.40337      1.64120         0.050433      0.014749     -0.053572
      6.92485      6.01017      9.36224        -0.050433     -0.014749      0.053572
      2.63797      6.01017      7.14292        -0.050433     -0.014749     -0.053572
      5.93580      0.40337      3.86052         0.050433      0.014749      0.053572
      6.92485      3.61015      9.36224        -0.050433      0.014749      0.053572
      1.64892      2.80340      1.64120         0.050433     -0.014749     -0.053572
      5.93580      2.80340      3.86052         0.050433     -0.014749      0.053572
      2.63797      3.61015      7.14292        -0.050433      0.014749     -0.053572
      0.64292      4.81016      6.50431        -0.037312     -0.000000      0.022624
      7.93084      1.60339      4.49913         0.037312      0.000000     -0.022624
      3.64396      1.60339      1.00259         0.037312      0.000000      0.022624
      4.92980      4.81016     10.00085        -0.037312     -0.000000     -0.022624
      1.68319      1.60339     10.56723        -0.007131     -0.000000     -0.030746
      6.89057      4.81016      0.43621         0.007131     -0.000000      0.030746
      2.60369      4.81016      5.06551         0.007131      0.000000     -0.030746
      5.97007      1.60339      5.93793        -0.007131      0.000000      0.030746
    total drift:                               -0.000331      0.000458      0.000047

  FREE ENERGIE OF THE ION-ELECTRON SYSTEM (eV)
  free  energy   TOTEN  =      -112.40448862 eV

  energy  without entropy=     -112.40448862  energy(sigma->0) =     -112.40448862

 d Force =-0.4661871E-03[-0.494E-03,-0.438E-03]  d Energy = 0.1019126E-03-0.568E-03
 d Force =-0.9939293E-02[-0.101E-01,-0.978E-02]  d Ewald  = 0.2127367E+01-0.214E+01

 reached required accuracy - stopping structural energy minimisation
 writing wavefunctions
 BZINTS: Fermi energy:  4.258733;144.000000 electrons
         Band energy:***********;  BLOECHL correction:  0.000000