 vasp.5.4.4.18Apr17-6-g9f103f2a35 (build Nov 21 2017 15:30:27) complex

 executed on             LinuxIFC date 2020.11.09  11:51:34

 INCAR:
 POTCAR:   PAW_PBE Ba_sv 06Sep2000
 POTCAR:   PAW_PBE Si 05Jan2001

 POTCAR:   PAW_PBE Ba_sv 06Sep2000
   VRHFIN =Ba: 5s5p6s

   TITEL  = PAW_PBE Ba_sv 06Sep2000
   POMASS =  137.327; ZVAL   =   10.000    mass and valenz
   ENMAX  =  187.210; ENMIN  =  140.408 eV
   QCUT   =   -3.709; QGAM   =    7.419    optimization parameters

   Description
     l     E      TYP  RCUT    TYP  RCUT
     0   .000     23  2.800
     0   .000     23  2.800
     1   .000     23  2.700
     1  2.000     23  2.700
     2   .000     23  2.700
     2   .000     23  2.700

 POTCAR:   PAW_PBE Si 05Jan2001
   VRHFIN =Si: s2p2

   TITEL  = PAW_PBE Si 05Jan2001
   POMASS =   28.085; ZVAL   =    4.000    mass and valenz
   ENMAX  =  245.345; ENMIN  =  184.009 eV
   QCUT   =   -4.246; QGAM   =    8.493    optimization parameters

   Description
     l     E      TYP  RCUT    TYP  RCUT
     0   .000     23  1.900
     0   .000     23  1.900
     1   .000     23  1.900
     1   .000     23  1.900
     2   .000      7  1.900

 Optimization of the real space projectors (new method)

 maximal supplied QI-value         = 13.42
 optimisation between [QCUT,QGAM] = [ 11.40, 22.81] = [ 36.42,145.68] Ry
 Optimized for a Real-space Cutoff    1.56 Angstroem

   l    n(q)    QCUT    max X(q) W(low)/X(q) W(high)/X(q)  e(spline)
   0     11    11.404     7.198    0.14E-04    0.26E-04    0.99E-07
   0     11    11.404    15.603    0.29E-04    0.72E-04    0.44E-06
   1     10    11.404     3.746    0.20E-04    0.24E-04    0.43E-07
   1     10    11.404     4.362    0.22E-03    0.97E-04    0.22E-06
   2     10    11.404     5.782    0.83E-04    0.62E-05    0.27E-06
   2     10    11.404    65.505    0.42E-03    0.31E-04    0.12E-05
 Optimization of the real space projectors (new method)

 maximal supplied QI-value         = 19.84
 optimisation between [QCUT,QGAM] = [ 11.31, 22.82] = [ 35.82,145.81] Ry
 Optimized for a Real-space Cutoff    1.16 Angstroem

   l    n(q)    QCUT    max X(q) W(low)/X(q) W(high)/X(q)  e(spline)
   0      8    11.310     8.708    0.14E-04    0.11E-04    0.43E-08
   0      8    11.310   106.241    0.27E-03    0.30E-03    0.38E-07
   1      7    11.310     5.901    0.82E-05    0.48E-04    0.19E-07
   1      7    11.310    73.241    0.27E-03    0.27E-03    0.74E-07

 PAW_PBE Ba_sv 06Sep2000                :
 PAW_PBE Si 05Jan2001                   :

 POSCAR: ba8 si16
  positions in direct lattice
  velocities in cartesian coordinates
 exchange correlation table for  LEXCH =       43
   RHO(1)=    0.500       N(1)  =     2000
   RHO(2)=  100.500       N(2)  =     4000

 ion  position               nearest neighbor table
   1  0.010  0.269  0.715-  21 3.23  16 3.33  11 3.33  17 3.43  17 3.43   5 4.46   5 4.46   7 4.49
                             4 4.66
   2  0.365  0.767  0.316-  22 3.23  15 3.33  12 3.33  18 3.43  18 3.43   6 4.46   6 4.46   8 4.49
                             3 4.66
   3  0.177  0.768  0.209-  20 3.33  12 3.41  15 3.42  14 3.46   9 3.46  23 3.54  19 3.58  19 3.58
                            22 3.69   5 3.82   7 4.13   7 4.13   6 4.40   6 4.40   2 4.66
   4  0.198  0.268  0.822-  19 3.33  11 3.41  16 3.42  13 3.46  10 3.46  24 3.54  20 3.58  20 3.58
                            21 3.69   6 3.82   8 4.13   8 4.13   5 4.40   5 4.40   1 4.66
   5  0.086  0.769  0.930-  21 3.36  21 3.36  16 3.37  11 3.38  20 3.40   9 3.40  14 3.41  17 3.65
                             3 3.82   4 4.40   4 4.40   1 4.46   1 4.46
   6  0.289  0.268  0.101-  22 3.36  22 3.36  15 3.37  12 3.38  19 3.40  10 3.40  13 3.41  18 3.65
                             4 3.82   3 4.40   3 4.40   2 4.46   2 4.46
   7  0.130  0.268  0.410-  15 3.35  12 3.35  14 3.40   9 3.40  23 3.44  23 3.44  11 3.48  16 3.49
                            19 3.54  24 3.91   3 4.13   3 4.13   1 4.49
   8  0.245  0.768  0.622-  16 3.35  11 3.35  13 3.40  10 3.40  24 3.44  24 3.44  12 3.48  15 3.49
                            20 3.54  23 3.91   4 4.13   4 4.13   2 4.49
   9  0.064  0.085  0.166-  14 2.40  21 2.41  19 2.47   7 3.40   5 3.40   3 3.46
  10  0.312  0.952  0.866-  13 2.40  22 2.41  20 2.47   8 3.40   6 3.40   4 3.46
  11  0.115  0.952  0.657-  16 2.40  23 2.43  17 2.43   1 3.33   8 3.35   5 3.38   4 3.41   7 3.48

  12  0.260  0.084  0.375-  15 2.40  24 2.43  18 2.43   2 3.33   7 3.35   6 3.38   3 3.41   8 3.48

[...]

  21  0.063  0.269  0.980-  14 2.41   9 2.41  19 2.42   1 3.23   5 3.36   5 3.36   4 3.69
  22  0.312  0.768  0.052-  13 2.41  10 2.41  20 2.42   2 3.23   6 3.36   6 3.36   3 3.69
  23  0.097  0.768  0.474-  16 2.43  17 2.43  11 2.43   7 3.44   7 3.44   3 3.54   8 3.91
  24  0.278  0.268  0.558-  15 2.43  18 2.43  12 2.43   8 3.44   8 3.44   4 3.54   7 3.91

  LATTYP: Found a simple orthorhombic cell.
 ALAT       =     6.5403619403
 B/A-ratio  =     1.7198445489
 C/A-ratio  =     3.6709693283

  Lattice vectors:

 A1 = (   0.0000000000,   6.5403619403,   0.0000000000)
 A2 = (   0.0000000000,   0.0000000000, -11.2484058311)
 A3 = ( -24.0094680786,   0.0000000000,   0.0000000000)

Analysis of symmetry for initial positions (statically):
 Subroutine PRICEL returns:
 Original cell was already a primitive cell.

 Routine SETGRP: Setting up the symmetry group for a
 simple orthorhombic supercell.

 Subroutine GETGRP returns: Found  2 space group operations
 (whereof  1 operations were pure point group operations)
 out of a pool of  8 trial point group operations.

The static configuration has the point symmetry C_1 .
 The point group associated with its full space group is S_2 .

Analysis of symmetry for dynamics (positions and initial velocities):
 Subroutine PRICEL returns:
 Original cell was already a primitive cell.

 Routine SETGRP: Setting up the symmetry group for a
 simple orthorhombic supercell.

 Subroutine GETGRP returns: Found  2 space group operations
 (whereof  1 operations were pure point group operations)
 out of a pool of  8 trial point group operations.

The dynamic configuration has the point symmetry C_1 .
 The point group associated with its full space group is S_2 .

 Subroutine INISYM returns: Found  2 space group operations
 (whereof  1 operations are pure point group operations),
 and found     1 'primitive' translations

 KPOINTS: k-points along high symmetry lines
  interpolating k-points between supplied coordinates
  k-points in reciprocal lattice
Space group operators:
 irot       det(A)        alpha          n_x          n_y          n_z        tau_x        tau_y        tau_z
    1     1.000000     0.000000     1.000000     0.000000     0.000000     0.000000     0.000000     0.000000
    2    -1.000000     0.000000     1.000000     0.000000     0.000000    -0.624754     0.036311    -0.968552

 SYSTEM =  unknown system
 POSCAR =  ba8 si16

 Startparameter for this run:
   NWRITE =      2    write-flag & timer
   PREC   = normal    normal or accurate (medium, high low for compatibility)
   ISTART =      0    job   : 0-new  1-cont  2-samecut
   ICHARG =     11    charge: 1-file 2-atom 10-const
   ISPIN  =      1    spin polarized calculation?
   LNONCOLLINEAR =      F non collinear calculations
   LSORBIT =      F    spin-orbit coupling
   INIWAV =      1    electr: 0-lowe 1-rand  2-diag
   LASPH  =      T    aspherical Exc in radial PAW
   METAGGA=      F    non-selfconsistent MetaGGA calc.

 Electronic Relaxation 1
   ENCUT  =  500.0 eV  36.75 Ry    6.06 a.u.  43.77 11.92 20.51*2*pi/ulx,y,z
   ENINI  =  500.0     initial cutoff
   ENAUG  =  351.2 eV  augmentation charge cutoff
   NELM   =    100;   NELMIN=  2; NELMDL= -5     # of ELM steps
   EDIFF  = 0.1E-05   stopping-criterion for ELM
   LREAL  =      T    real-space projection
   NLSPLINE    = F    spline interpolate recip. space projectors
   LCOMPAT=      F    compatible to vasp.4.4
   GGA_COMPAT  = T    GGA compatible to vasp.4.4-vasp.4.6
   LMAXPAW     = -100 max onsite density
   LMAXMIX     =    2 max onsite mixed and CHGCAR
   VOSKOWN=      0    Vosko Wilk Nusair interpolation
   ROPT   =   -0.00050  -0.00050
 Ionic relaxation
   EDIFFG = -.1E-01   stopping-criterion for IOM
   NSW    =      0    number of steps for IOM
   NBLOCK =      1;   KBLOCK =      1    inner block; outer block
   IBRION =     -1    ionic relax: 0-MD 1-quasi-New 2-CG
   NFREE  =      0    steps in history (QN), initial steepest desc. (CG)
   ISIF   =      2    stress and relaxation
   IWAVPR =     10    prediction:  0-non 1-charg 2-wave 3-comb
   ISYM   =      2    0-nonsym 1-usesym 2-fastsym
   LCORR  =      T    Harris-Foulkes like correction to forces

   POTIM  = 0.3000    time-step for ionic-motion
   TEIN   =    0.0    initial temperature
   TEBEG  =    0.0;   TEEND  =   0.0 temperature during run
   SMASS  =  -3.00    Nose mass-parameter (am)
   estimated Nose-frequenzy (Omega)   =  0.10E-29 period in steps =****** mass=  -0.132E-25a.u.
   SCALEE = 1.0000    scale energy and forces
   NPACO  =    256;   APACO  = 16.0  distance and # of slots for P.C.
   PSTRESS=    0.0 pullay stress

  Mass of Ions in am
   POMASS = 137.33 28.09
  Ionic Valenz
   ZVAL   =  10.00  4.00
  Atomic Wigner-Seitz radii
  virtual crystal weights
   VCA    =   1.00  1.00
   NELECT =     144.0000    total number of electrons
   NUPDOWN=      -1.0000    fix difference up-down

 DOS related values:
   EMIN   =  10.00;   EMAX   =-10.00  energy-range for DOS
   EFERMI =   0.00
   ISMEAR =     0;   SIGMA  =   0.01  broadening in eV -4-tet -1-fermi 0-gaus

 Electronic relaxation 2 (details)
   IALGO  =     38    algorithm
   LDIAG  =      T    sub-space diagonalisation (order eigenvalues)
   LSUBROT=      F    optimize rotation matrix (better conditioning)
   TURBO    =      0    0=normal 1=particle mesh
   IRESTART =      0    0=no restart 2=restart with 2 vectors
   NREBOOT  =      0    no. of reboots
   NMIN     =      0    reboot dimension
   EREF     =   0.00    reference energy to select bands
   IMIX   =      4    mixing-type and parameters
     AMIX     =   0.40;   BMIX     =  1.00
     AMIX_MAG =   1.60;   BMIX_MAG =  1.00
     AMIN     =   0.10
     WC   =   100.;   INIMIX=   1;  MIXPRE=   1;  MAXMIX= -45

 Intra band minimization:
   WEIMIN = 0.0000     energy-eigenvalue tresh-hold
   EBREAK =  0.28E-08  absolut break condition
   DEPER  =   0.30     relativ break condition

   TIME   =   0.40     timestep for ELM

  volume/ion in A,a.u.               =      73.60       496.66
  Fermi-wavevector in a.u.,A,eV,Ry     =   0.709856  1.341434  6.855925  0.503896
  Thomas-Fermi vector in A             =   1.796549

 Write flags
   LWAVE        =      T    write WAVECAR
   LDOWNSAMPLE  =      F    k-point downsampling of WAVECAR
   LCHARG       =      T    write CHGCAR
   LVTOT        =      F    write LOCPOT, total local potential
   LVHAR        =      F    write LOCPOT, Hartree potential only
   LELF         =      F    write electronic localiz. function (ELF)
   LORBIT       =      0    0 simple, 1 ext, 2 COOP (PROOUT), +10 PAW based schemes

 Dipole corrections
   LMONO  =      F    monopole corrections only (constant potential shift)
[...]
 maximum index in each direction:
   IXMAX=   43   IYMAX=   11   IZMAX=   20
   IXMIN=  -43   IYMIN=  -12   IZMIN=  -21

 real space projection operators:
  max/ min on nodes  :       1098.55       1087.22

 parallel 3D FFT for wavefunctions:
    minimum data exchange during FFTs selected (reduces bandwidth)
 parallel 3D FFT for charge:
    minimum data exchange during FFTs selected (reduces bandwidth)

 initial charge density was supplied:
 number of electron     144.0000006 magnetization
 keeping initial charge density in first step

 Maximum index for non-local projection operator          722
 Maximum index for augmentation-charges          560 (set IRDMAX)

 First call to EWALD:  gamma=   0.147
 Maximum number of real-space cells 2x 5x 3
 Maximum number of reciprocal cells 5x 2x 3

--------------------------------------- Iteration      1(   1)  ---------------------------------------

vdW kernel read from vdw_kernel.bindat
  0.0000  0.2424  0.5071  0.7962  1.1119  1.4567  1.8333  2.2446  2.6937  3.1842
  3.7199  4.3049  4.9438  5.6415  6.4036  7.2358  8.1446  9.1372 10.2212 11.4050
 12.6979 14.1099 15.6519 17.3360 19.1751 21.1837 23.3773 25.7729 28.3892 31.2465
 34.3669 37.7748 41.4965 45.5611 50.0000

 eigenvalue-minimisations  : 14688
 total energy-change (2. order) : 0.1107063E+04  (-0.4715605E+04)
 number of electron     144.0000006 magnetization
 augmentation part      144.0000006 magnetization

 Free energy of the ion-electron system (eV)
  alpha Z        PSCENC =       182.20216268
  Ewald energy   TEWEN  =     14168.75486563
  -Hartree energ DENC   =    -20599.18573235
  -exchange      EXHF   =         0.00000000
  -V(xc)+E(xc)   XCENC  =        47.86297257
  PAW double counting   =      3870.05451552    -3575.52578058
  entropy T*S    EENTRO =        -0.00067591
  eigenvalues    EBANDS =      -256.25068000
  atomic energy  EATOM  =      7269.15145414
  Solvation  Ediel_sol  =         0.00000000
  free energy    TOTEN  =      1107.06310169 eV

  energy without entropy =     1107.06377761  energy(sigma->0) =     1107.06343965

[...]

 eigenvalue-minimisations  : 21144
 total energy-change (2. order) :-0.1027677E+04  (-0.9998427E+03)
 number of electron     144.0000006 magnetization
 augmentation part      144.0000006 magnetization

[...]

--------------------------------------- Iteration      1(   9)  ---------------------------------------

 eigenvalue-minimisations  : 15088
 total energy-change (2. order) :-0.5271613E-06  (-0.5271540E-06)
 number of electron     144.0000006 magnetization
 augmentation part      144.0000006 magnetization

 Free energy of the ion-electron system (eV)
  alpha Z        PSCENC =       182.20216268
  Ewald energy   TEWEN  =     14168.75486563
  -Hartree energ DENC   =    -20599.18573235
  -exchange      EXHF   =         0.00000000
  -V(xc)+E(xc)   XCENC  =        47.86297257
  PAW double counting   =      3870.05451552    -3575.52578058
  entropy T*S    EENTRO =        -0.00000000
  eigenvalues    EBANDS =     -1454.59076365
  atomic energy  EATOM  =      7269.15145414
  Solvation  Ediel_sol  =         0.00000000
  free energy    TOTEN  =       -91.27630604 eV

  energy without entropy =      -91.27630604  energy(sigma->0) =      -91.27630604

 average (electrostatic) potential at core
  the test charge radii are     1.2192  0.9892
  (the norm of the test charge is              1.0000)
       1 -41.4232       2 -41.4234       3 -40.2630       4 -40.2629       5 -40.3147
       6 -40.3147       7 -40.3606       8 -40.3606       9 -89.1108      10 -89.1107
      11 -89.4090      12 -89.4091      13 -89.1109      14 -89.1110      15 -89.4098
      16 -89.4097      17 -89.5522      18 -89.5525      19 -89.0641      20 -89.0641
      21 -89.1137      22 -89.1138      23 -89.4807      24 -89.4807

 E-fermi :  -0.7867     XC(G=0):  -4.3109     alpha+bet : -4.1101

 k-point     1 :       0.0000    0.0000    0.0000
  band No.  band energies     occupation
      1     -29.2833      2.00000
      2     -29.2831      2.00000
      3     -28.2645      2.00000
      4     -28.2573      2.00000
      5     -28.2288      2.00000
      6     -28.2189      2.00000
      7     -28.1601      2.00000
      8     -28.1494      2.00000
      9     -14.6636      2.00000
     10     -14.6618      2.00000
     11     -14.5836      2.00000
     12     -14.5825      2.00000
     13     -14.5065      2.00000
     14     -14.5060      2.00000
     15     -13.9553      2.00000
     16     -13.8542      2.00000
     17     -13.7916      2.00000
     18     -13.7703      2.00000
     19     -13.7115      2.00000
     20     -13.6883      2.00000
     21     -13.6717      2.00000
     22     -13.6155      2.00000
     23     -13.6003      2.00000
     24     -13.5751      2.00000
     25     -13.5596      2.00000
     26     -13.5456      2.00000
     27     -13.4377      2.00000
     28     -13.4165      2.00000
     29     -13.3876      2.00000
     30     -13.3780      2.00000
     31     -13.3482      2.00000
     32     -13.3478      2.00000
     33     -11.3917      2.00000
     34     -11.2809      2.00000
     35     -10.9145      2.00000
     36     -10.8930      2.00000
     37      -6.6743      2.00000
     38      -6.6440      2.00000
     39      -6.4992      2.00000
     40      -6.4590      2.00000
     41      -6.4400      2.00000
     42      -6.4381      2.00000
     43      -6.2250      2.00000
     44      -6.1744      2.00000
     45      -6.1500      2.00000
     46      -6.0714      2.00000
     47      -5.8350      2.00000
     48      -5.8145      2.00000
     49      -3.8216      2.00000
     50      -3.3972      2.00000
     51      -2.9150      2.00000
     52      -2.9010      2.00000
     53      -2.6501      2.00000
     54      -2.4552      2.00000
     55      -2.3019      2.00000
     56      -2.2811      2.00000
     57      -2.1397      2.00000
     58      -2.0830      2.00000
     59      -1.9722      2.00000
     60      -1.9671      2.00000
[...]
     74       0.5029      0.00000
     75       0.5136      0.00000
     76       0.5261      0.00000
     77       0.5566      0.00000
     78       0.6715      0.00000
     79       0.8390      0.00000
     80       0.9367      0.00000
     81       1.0581      0.00000
     82       1.2043      0.00000
     83       1.2507      0.00000
     84       1.3555      0.00000
     85       1.4033      0.00000
     86       1.5576      0.00000
     87       1.5688      0.00000
     88       1.6812      0.00000

[...]

 k-point    80 :       0.0000    0.0000    0.0000
  band No.  band energies     occupation
      1     -29.2833      2.00000
      2     -29.2831      2.00000
      3     -28.2645      2.00000
      4     -28.2573      2.00000
      5     -28.2288      2.00000
      6     -28.2189      2.00000
      7     -28.1601      2.00000
      8     -28.1494      2.00000
      9     -14.6636      2.00000
     10     -14.6618      2.00000
     11     -14.5836      2.00000
     12     -14.5825      2.00000
     13     -14.5065      2.00000
     14     -14.5060      2.00000
     15     -13.9553      2.00000
     16     -13.8542      2.00000
     17     -13.7916      2.00000
     18     -13.7703      2.00000
     19     -13.7115      2.00000
     20     -13.6883      2.00000
     21     -13.6717      2.00000
     22     -13.6155      2.00000
     23     -13.6003      2.00000
     24     -13.5751      2.00000
     25     -13.5596      2.00000
     26     -13.5456      2.00000
     27     -13.4377      2.00000
     28     -13.4165      2.00000
     29     -13.3876      2.00000
     30     -13.3780      2.00000
     31     -13.3482      2.00000
     32     -13.3478      2.00000
     33     -11.3917      2.00000
     34     -11.2809      2.00000
     35     -10.9145      2.00000
     36     -10.8930      2.00000
     37      -6.6743      2.00000
     38      -6.6440      2.00000
     39      -6.4992      2.00000
     40      -6.4590      2.00000
     41      -6.4400      2.00000
     42      -6.4381      2.00000
     43      -6.2250      2.00000
     44      -6.1744      2.00000
     45      -6.1500      2.00000
     46      -6.0714      2.00000
     47      -5.8350      2.00000
     48      -5.8145      2.00000
     49      -3.8216      2.00000
     50      -3.3972      2.00000
     51      -2.9150      2.00000
     52      -2.9010      2.00000
     53      -2.6501      2.00000
     54      -2.4552      2.00000
     55      -2.3019      2.00000
     56      -2.2811      2.00000
     57      -2.1397      2.00000
     58      -2.0830      2.00000
     59      -1.9722      2.00000
     60      -1.9671      2.00000
[...]
     74       0.5029      0.00000
     75       0.5136      0.00000
     76       0.5261      0.00000
     77       0.5566      0.00000
     78       0.6715      0.00000
     79       0.8390      0.00000
     80       0.9367      0.00000
     81       1.0581      0.00000
     82       1.2043      0.00000
     83       1.2507      0.00000
     84       1.3555      0.00000
     85       1.4034      0.00000
     86       1.5552      0.00000
     87       1.5689      0.00000
     88       1.6960      0.00000

 soft charge-density along one line, spin component           1
         0         1         2         3         4         5         6         7         8         9
 total charge-density along one line

------------------------ aborting loop because EDIFF is reached ----------------------------------------

  FORCE on cell =-STRESS in cart. coord.  units (eV):
  Direction    XX          YY          ZZ          XY          YZ          ZX
  Alpha Z   182.20216   182.20216   182.20216
  Ewald  -22349.57712 18464.17551 18054.14140     0.44121     0.11044   128.44059
  Hartree-19084.36563 20002.50307 19684.29828     0.19842     0.00793    91.80118
  E(xc)    -464.30823  -465.84604  -465.90397     0.00053     0.00058     0.02549
  Local   40002.60843-39916.27334-39179.16073    -0.63253    -0.12728  -216.47901
  n-local   335.71481   339.10276   341.00103    -0.01310     0.01608    -1.35099
  augment  -167.55862  -168.48702  -168.44825    -0.00109    -0.00060     0.31468
  Kinetic  1545.00453  1562.08904  1551.50007     0.06717     0.00135    -2.53084
  Fock        0.00000     0.00000     0.00000     0.00000     0.00000     0.00000
  Total      -0.27967    -0.53386    -0.37000     0.06060     0.00851     0.22111
  in kB      -0.25368    -0.48424    -0.33561     0.05497     0.00772     0.20056

 VOLUME and BASIS-vectors are now :
  energy-cutoff  :      500.00
  volume of cell :     1766.34
      direct lattice vectors                 reciprocal lattice vectors
    24.009468079  0.000000000  0.000000000     0.041650236  0.000000000  0.000000000
     0.000000000  6.540361940  0.000000000     0.000000000  0.152896737  0.000000000
     0.000000000  0.000000000 11.248405831     0.000000000  0.000000000  0.088901487

  length of vectors
    24.009468079  6.540361940 11.248405831     0.041650236  0.152896737  0.088901487

 FORCES acting on ions
    electron-ion (+dipol)            ewald-force                    non-local-force                 convergence-correction
   0.864E+03 0.109E-01 0.331E+02   -.860E+03 -.807E-02 -.319E+02   -.391E+01 -.274E-02 -.123E+01   -.769E-01 -.652E-03 0.527E-01
   -.864E+03 -.109E-01 -.331E+02   0.860E+03 0.807E-02 0.319E+02   0.391E+01 0.274E-02 0.123E+01   0.801E-01 0.463E-03 -.537E-01
   0.856E+02 -.107E-01 -.335E+02   -.855E+02 0.701E-02 0.331E+02   -.105E+00 0.347E-02 0.576E+00   -.252E-01 -.185E-02 -.131E+00
   -.856E+02 0.108E-01 0.335E+02   0.855E+02 -.702E-02 -.331E+02   0.105E+00 -.347E-02 -.576E+00   0.283E-01 0.224E-03 0.129E+00
   0.587E+03 0.436E-01 -.306E+02   -.586E+03 -.454E-01 0.302E+02   -.732E+00 0.140E-02 0.125E+00   -.582E-01 -.150E-02 0.232E+00
   -.587E+03 -.436E-01 0.306E+02   0.586E+03 0.454E-01 -.302E+02   0.732E+00 -.140E-02 -.125E+00   0.540E-01 0.190E-02 -.230E+00
   0.377E+03 -.186E-01 -.965E+01   -.376E+03 0.115E-01 0.926E+01   -.834E+00 0.480E-02 0.503E+00   -.109E+00 0.129E-02 -.651E-01
   -.377E+03 0.186E-01 0.965E+01   0.376E+03 -.115E-01 -.926E+01   0.834E+00 -.480E-02 -.503E+00   0.105E+00 -.100E-02 0.684E-01
   0.320E+03 0.363E+02 -.432E+02   -.320E+03 -.379E+02 0.441E+02   -.435E+00 0.158E+01 -.903E+00   -.683E-01 0.166E-01 -.462E-01
   -.320E+03 -.363E+02 0.432E+02   0.320E+03 0.379E+02 -.441E+02   0.435E+00 -.158E+01 0.903E+00   0.681E-01 -.167E-01 0.460E-01
   0.142E+03 -.309E+02 0.620E+01   -.141E+03 0.321E+02 -.561E+01   -.670E+00 -.127E+01 -.621E+00   0.138E-01 0.265E-01 0.195E-01
   -.142E+03 0.309E+02 -.620E+01   0.141E+03 -.321E+02 0.561E+01   0.670E+00 0.127E+01 0.621E+00   -.141E-01 -.261E-01 -.197E-01
   -.320E+03 0.363E+02 0.431E+02   0.320E+03 -.379E+02 -.441E+02   0.443E+00 0.157E+01 0.910E+00   0.677E-01 0.165E-01 0.466E-01
   0.320E+03 -.363E+02 -.431E+02   -.320E+03 0.379E+02 0.441E+02   -.443E+00 -.157E+01 -.910E+00   -.678E-01 -.164E-01 -.467E-01
   -.141E+03 -.309E+02 -.612E+01   0.141E+03 0.321E+02 0.552E+01   0.676E+00 -.126E+01 0.625E+00   -.143E-01 0.264E-01 -.197E-01
   0.141E+03 0.309E+02 0.612E+01   -.141E+03 -.321E+02 -.552E+01   -.676E+00 0.126E+01 -.625E+00   0.143E-01 -.266E-01 0.192E-01
   0.368E+03 -.387E-02 0.303E+02   -.369E+03 0.597E-02 -.298E+02   0.164E+01 -.343E-02 -.485E+00   -.821E-01 0.758E-04 -.485E-01
   -.368E+03 0.386E-02 -.303E+02   0.369E+03 -.597E-02 0.298E+02   -.164E+01 0.343E-02 0.485E+00   0.819E-01 0.124E-03 0.483E-01
   0.688E+02 0.313E-01 -.734E+01   -.666E+02 -.278E-01 0.721E+01   -.214E+01 -.953E-02 0.175E+00   -.518E-01 0.777E-03 -.310E-01
   -.688E+02 -.313E-01 0.734E+01   0.666E+02 0.278E-01 -.721E+01   0.214E+01 0.953E-02 -.175E+00   0.523E-01 -.631E-03 0.311E-01
   0.297E+03 -.363E-01 0.717E+01   -.297E+03 0.369E-01 -.870E+01   0.386E+00 -.247E-02 0.146E+01   -.343E-01 0.411E-03 0.646E-01
   -.297E+03 0.363E-01 -.717E+01   0.297E+03 -.369E-01 0.870E+01   -.386E+00 0.247E-02 -.146E+01   0.337E-01 -.449E-03 -.648E-01
   0.222E+03 0.481E-01 0.592E+02   -.221E+03 -.516E-01 -.613E+02   -.764E+00 0.529E-02 0.210E+01   -.656E-01 -.362E-03 -.454E-01
   -.222E+03 -.481E-01 -.592E+02   0.221E+03 0.516E-01 0.613E+02   0.764E+00 -.529E-02 -.210E+01   0.650E-01 0.321E-03 0.459E-01
   0.130E-03 0.929E-04 0.827E-04   0.853E-13 0.173E-13 -.711E-14   -.777E-15 0.000E+00 0.444E-15   -.314E-02 -.684E-03 0.191E-02

 POSITION                                       TOTAL-FORCE (eV/Angst)
      0.24668      1.75847      8.04631         0.037486     -0.000459     -0.050006
      8.76278      5.01938      3.55583        -0.037486      0.000459      0.050006
      4.25602      5.02493      2.35470        -0.060433     -0.001306     -0.018149
      4.75345      1.75292      9.24744         0.060433      0.001306      0.018149
      2.07622      5.02752     10.46608        -0.003935     -0.002144      0.001684
      6.93325      1.75033      1.13606         0.003935      0.002144     -0.001684
      3.13155      1.75546      4.60789        -0.018713     -0.001177      0.045427
      5.87792      5.02239      6.99425         0.018713      0.001177     -0.045427
      1.52662      0.55457      1.86569         0.025147      0.024200      0.002218
      7.48285      6.22328      9.73645        -0.025147     -0.024200     -0.002218
      2.77266      6.22674      7.38899        -0.025226     -0.040470     -0.009124
      6.23681      0.55111      4.21315         0.025226      0.040470      0.009124
      7.48126      3.82064      9.73506        -0.026481      0.023281     -0.004233
      1.52821      2.95720      1.86708         0.026481     -0.023281      0.004233
      6.23579      2.94767      4.21022         0.025507     -0.044681      0.006000
      2.77368      3.83018      7.39192        -0.025507      0.044681     -0.006000
      0.67598      5.02852      7.09321         0.022531     -0.001347      0.024247
      8.33348      1.74933      4.50893        -0.022531      0.001347     -0.024247
      3.53847      1.75629      1.09498         0.008998     -0.005317      0.006048
      5.47100      5.02156     10.50716        -0.008998      0.005317     -0.006048
      1.51773      1.75741     11.02077         0.008922     -0.001404     -0.001700
      7.49174      5.02044      0.58137        -0.008922      0.001404      0.001700
      2.33842      5.02508      5.32627         0.011634      0.001394     -0.017475
      6.67104      1.75277      6.27587        -0.011634     -0.001394      0.017475
    total drift:                               -0.003014     -0.000591      0.001990

  FREE ENERGIE OF THE ION-ELECTRON SYSTEM (eV)
  free  energy   TOTEN  =       -91.27630604 eV

  energy  without entropy=      -91.27630604  energy(sigma->0) =      -91.27630604

 writing wavefunctions