 vasp.5.4.4.18Apr17-6-g9f103f2a35 (build Nov 21 2017 15:30:27) complex

 executed on             LinuxIFC date 2020.09.15  08:17:22

 INCAR:
 POTCAR:   PAW_PBE Ba_sv 06Sep2000
 POTCAR:   PAW_PBE Si 05Jan2001

 POTCAR:   PAW_PBE Ba_sv 06Sep2000
   VRHFIN =Ba: 5s5p6s

   TITEL  = PAW_PBE Ba_sv 06Sep2000
   POMASS =  137.327; ZVAL   =   10.000    mass and valenz
   ENMAX  =  187.210; ENMIN  =  140.408 eV
   QCUT   =   -3.709; QGAM   =    7.419    optimization parameters

   Description
     l     E      TYP  RCUT    TYP  RCUT
     0   .000     23  2.800
     0   .000     23  2.800
     1   .000     23  2.700
     1  2.000     23  2.700
     2   .000     23  2.700
     2   .000     23  2.700

 POTCAR:   PAW_PBE Si 05Jan2001
   VRHFIN =Si: s2p2

   TITEL  = PAW_PBE Si 05Jan2001
   POMASS =   28.085; ZVAL   =    4.000    mass and valenz
   ENMAX  =  245.345; ENMIN  =  184.009 eV
   QCUT   =   -4.246; QGAM   =    8.493    optimization parameters

   Description
     l     E      TYP  RCUT    TYP  RCUT
     0   .000     23  1.900
     0   .000     23  1.900
     1   .000     23  1.900
     1   .000     23  1.900
     2   .000      7  1.900

 Optimization of the real space projectors (new method)

 maximal supplied QI-value         = 13.42
 optimisation between [QCUT,QGAM] = [ 11.40, 22.81] = [ 36.42,145.68] Ry
 Optimized for a Real-space Cutoff    1.56 Angstroem

   l    n(q)    QCUT    max X(q) W(low)/X(q) W(high)/X(q)  e(spline)
   0     11    11.404     7.198    0.14E-04    0.26E-04    0.99E-07
   0     11    11.404    15.603    0.29E-04    0.72E-04    0.44E-06
   1     10    11.404     3.746    0.20E-04    0.24E-04    0.43E-07
   1     10    11.404     4.362    0.22E-03    0.97E-04    0.22E-06
   2     10    11.404     5.782    0.83E-04    0.62E-05    0.27E-06
   2     10    11.404    65.505    0.42E-03    0.31E-04    0.12E-05
 Optimization of the real space projectors (new method)

 maximal supplied QI-value         = 19.84
 optimisation between [QCUT,QGAM] = [ 11.31, 22.82] = [ 35.82,145.81] Ry
 Optimized for a Real-space Cutoff    1.16 Angstroem

   l    n(q)    QCUT    max X(q) W(low)/X(q) W(high)/X(q)  e(spline)
   0      8    11.310     8.708    0.14E-04    0.11E-04    0.43E-08
   0      8    11.310   106.241    0.27E-03    0.30E-03    0.38E-07
   1      7    11.310     5.901    0.82E-05    0.48E-04    0.19E-07
   1      7    11.310    73.241    0.27E-03    0.27E-03    0.74E-07

 PAW_PBE Ba_sv 06Sep2000                :
 PAW_PBE Si 05Jan2001                   :

 POSCAR: ba8 si16
  positions in direct lattice
  velocities in cartesian coordinates
 exchange correlation table for  LEXCH =       43
   RHO(1)=    0.500       N(1)  =     2000
   RHO(2)=  100.500       N(2)  =     4000

 ion  position               nearest neighbor table
   1  0.006  0.250  0.706-  21 3.42  16 3.45  11 3.45  17 3.66  17 3.66   5 4.39   5 4.39   7 4.61
                             4 4.72
   2  0.372  0.750  0.294-  22 3.42  12 3.45  15 3.45  18 3.66  18 3.66   6 4.39   6 4.39   8 4.61
                             3 4.72
   3  0.182  0.750  0.187-  20 3.30  22 3.40  12 3.42  15 3.42   9 3.44  14 3.44  19 3.64  19 3.64
                            23 3.73   5 4.28   7 4.39   7 4.39   2 4.72
   4  0.195  0.250  0.813-  19 3.30  21 3.40  16 3.42  11 3.42  13 3.44  10 3.44  20 3.64  20 3.64
                            24 3.73   6 4.28   8 4.39   8 4.39   1 4.72
   5  0.060  0.750  0.918-   9 3.44  14 3.44  21 3.45  21 3.45  11 3.51  16 3.51  17 3.76  20 3.87
                             3 4.28   1 4.39   1 4.39
   6  0.318  0.250  0.082-  13 3.44  10 3.44  22 3.45  22 3.45  15 3.51  12 3.51  18 3.76  19 3.87
                             4 4.28   2 4.39   2 4.39
   7  0.128  0.250  0.399-  14 3.44   9 3.44  15 3.52  12 3.52  23 3.52  23 3.52  24 3.57  19 3.70
                            16 3.72  11 3.72   3 4.39   3 4.39   1 4.61
   8  0.249  0.750  0.601-  10 3.44  13 3.44  11 3.52  16 3.52  24 3.52  24 3.52  23 3.57  20 3.70
                            12 3.72  15 3.72   4 4.39   4 4.39   2 4.61
   9  0.073  0.072  0.146-  14 2.41  21 2.44  19 2.44   7 3.44   3 3.44   5 3.44
  10  0.304  0.928  0.854-  13 2.41  22 2.44  20 2.44   8 3.44   4 3.44   6 3.44
  11  0.115  0.929  0.658-  16 2.42  23 2.44  17 2.44   4 3.42   1 3.45   5 3.51   8 3.52   7 3.72

  12  0.263  0.071  0.342-  15 2.42  24 2.44  18 2.44   3 3.42   2 3.45   6 3.51   7 3.52   8 3.72

[...]

  21  0.074  0.250  0.964-  19 2.43  14 2.44   9 2.44   4 3.40   1 3.42   5 3.45   5 3.45
  22  0.303  0.750  0.036-  20 2.43  10 2.44  13 2.44   3 3.40   2 3.42   6 3.45   6 3.45
  23  0.113  0.750  0.476-  11 2.44  16 2.44  17 2.44   7 3.52   7 3.52   8 3.57   3 3.73
  24  0.264  0.250  0.524-  15 2.44  12 2.44  18 2.44   8 3.52   8 3.52   7 3.57   4 3.73

  LATTYP: Found a simple orthorhombic cell.
 ALAT       =     6.7778496742
 B/A-ratio  =     1.7117734747
 C/A-ratio  =     3.5423429602

  Lattice vectors:

 A1 = (   0.0000000000,   6.7778496742,   0.0000000000)
 A2 = (   0.0000000000,   0.0000000000, -11.6021432877)
 A3 = ( -24.0094680786,   0.0000000000,   0.0000000000)

Analysis of symmetry for initial positions (statically):
 Subroutine PRICEL returns:
 Original cell was already a primitive cell.

 Routine SETGRP: Setting up the symmetry group for a
 simple orthorhombic supercell.

 Subroutine GETGRP returns: Found  4 space group operations
 (whereof  1 operations were pure point group operations)
 out of a pool of  8 trial point group operations.

The static configuration has the point symmetry C_1 .
 The point group associated with its full space group is C_2h.

Analysis of symmetry for dynamics (positions and initial velocities):
 Subroutine PRICEL returns:
 Original cell was already a primitive cell.

[...]

The dynamic configuration has the point symmetry C_1 .
 The point group associated with its full space group is C_2h.

Analysis of constrained symmetry for selective dynamics:
 Subroutine PRICEL returns:
 Original cell was already a primitive cell.

 Routine SETGRP: Setting up the symmetry group for a
 simple orthorhombic supercell.

 Subroutine GETGRP returns: Found  4 space group operations
 (whereof  1 operations were pure point group operations)
 out of a pool of  8 trial point group operations.

The constrained configuration has the point symmetry C_1 .
 The point group associated with its full space group is C_2h.

 Subroutine INISYM returns: Found  4 space group operations
 (whereof  1 operations are pure point group operations),
 and found     1 'primitive' translations

 KPOINTS: k-density: 8.0

Automatic generation of k-mesh.
Space group operators:
 irot       det(A)        alpha          n_x          n_y          n_z        tau_x        tau_y        tau_z
    1     1.000000     0.000000     1.000000     0.000000     0.000000     0.000000     0.000000     0.000000
    2    -1.000000     0.000000     1.000000     0.000000     0.000000    -0.622671     0.000000     0.000000
    3     1.000000   180.000000     0.000000     1.000000     0.000000    -0.622671     0.500000     0.000000
    4    -1.000000   180.000000     0.000000     1.000000     0.000000     0.000000     0.500000     0.000000

 Subroutine IBZKPT returns following result:

 Found     15 irreducible k-points:

 Following reciprocal coordinates:
            Coordinates               Weight
  0.000000  0.000000  0.000000      1.000000
  0.000000  0.125000  0.000000      2.000000
  0.000000  0.250000  0.000000      2.000000
  0.000000  0.375000  0.000000      2.000000
  0.000000  0.500000  0.000000      1.000000
  0.000000  0.000000  0.200000      2.000000
  0.000000  0.125000  0.200000      4.000000
  0.000000  0.250000  0.200000      4.000000
  0.000000  0.375000  0.200000      4.000000
  0.000000  0.500000  0.200000      2.000000
  0.000000  0.000000  0.400000      2.000000
  0.000000  0.125000  0.400000      4.000000
  0.000000  0.250000  0.400000      4.000000
  0.000000  0.375000  0.400000      4.000000
  0.000000  0.500000  0.400000      2.000000

 Following cartesian coordinates:
            Coordinates               Weight
  0.000000  0.000000  0.000000      1.000000
  0.000000  0.018442  0.000000      2.000000
  0.000000  0.036885  0.000000      2.000000
  0.000000  0.055327  0.000000      2.000000
  0.000000  0.073770  0.000000      1.000000
  0.000000  0.000000  0.017238      2.000000
  0.000000  0.018442  0.017238      4.000000
  0.000000  0.036885  0.017238      4.000000
  0.000000  0.055327  0.017238      4.000000
  0.000000  0.073770  0.017238      2.000000
  0.000000  0.000000  0.034476      2.000000
  0.000000  0.018442  0.034476      4.000000
  0.000000  0.036885  0.034476      4.000000
  0.000000  0.055327  0.034476      4.000000
  0.000000  0.073770  0.034476      2.000000

 TETIRR: Found    108 inequivalent tetrahedra from      240

 SYSTEM =  unknown system
 POSCAR =  ba8 si16

 Startparameter for this run:
   NWRITE =      2    write-flag & timer
   PREC   = normal    normal or accurate (medium, high low for compatibility)
   ISTART =      0    job   : 0-new  1-cont  2-samecut
   ICHARG =      2    charge: 1-file 2-atom 10-const
   ISPIN  =      1    spin polarized calculation?
   LNONCOLLINEAR =      F non collinear calculations
   LSORBIT =      F    spin-orbit coupling
   INIWAV =      1    electr: 0-lowe 1-rand  2-diag
   LASPH  =      T    aspherical Exc in radial PAW
   METAGGA=      F    non-selfconsistent MetaGGA calc.

 Electronic Relaxation 1
   ENCUT  =  500.0 eV  36.75 Ry    6.06 a.u.  43.77 12.36 21.15*2*pi/ulx,y,z
   ENINI  =  500.0     initial cutoff
   ENAUG  =  351.2 eV  augmentation charge cutoff
   NELM   =    100;   NELMIN=  2; NELMDL= -5     # of ELM steps
   EDIFF  = 0.1E-05   stopping-criterion for ELM
   LREAL  =      T    real-space projection
   NLSPLINE    = F    spline interpolate recip. space projectors
   LCOMPAT=      F    compatible to vasp.4.4
   GGA_COMPAT  = T    GGA compatible to vasp.4.4-vasp.4.6
   LMAXPAW     = -100 max onsite density
   LMAXMIX     =    2 max onsite mixed and CHGCAR
   VOSKOWN=      0    Vosko Wilk Nusair interpolation
   ROPT   =   -0.00050  -0.00050
 Ionic relaxation
   EDIFFG = -.1E-02   stopping-criterion for IOM
   NSW    =      0    number of steps for IOM
   NBLOCK =      1;   KBLOCK =      1    inner block; outer block
   IBRION =     -1    ionic relax: 0-MD 1-quasi-New 2-CG
   NFREE  =      0    steps in history (QN), initial steepest desc. (CG)
   ISIF   =      2    stress and relaxation
   IWAVPR =     10    prediction:  0-non 1-charg 2-wave 3-comb
   ISYM   =      2    0-nonsym 1-usesym 2-fastsym
   LCORR  =      T    Harris-Foulkes like correction to forces

   POTIM  = 0.3000    time-step for ionic-motion
   TEIN   =    0.0    initial temperature
   TEBEG  =    0.0;   TEEND  =   0.0 temperature during run
   SMASS  =  -3.00    Nose mass-parameter (am)
   estimated Nose-frequenzy (Omega)   =  0.10E-29 period in steps =****** mass=  -0.132E-25a.u.
   SCALEE = 1.0000    scale energy and forces
   NPACO  =    256;   APACO  = 16.0  distance and # of slots for P.C.
   PSTRESS=    0.0 pullay stress

  Mass of Ions in am
   POMASS = 137.33 28.09
  Ionic Valenz
   ZVAL   =  10.00  4.00
[...]

 BZINTS: Fermi energy:  6.873533;144.000000 electrons
         Band energy:-476.548705;  BLOECHL correction: -0.027162

 eigenvalue-minimisations  :  2768
 total energy-change (2. order) : 0.1202655E+04  (-0.4774199E+04)
 number of electron     144.0000000 magnetization
 augmentation part      144.0000000 magnetization

 Free energy of the ion-electron system (eV)
  alpha Z        PSCENC =       170.45750602
  Ewald energy   TEWEN  =     12488.76520436
  -Hartree energ DENC   =    -18597.55939687
  -exchange      EXHF   =         0.00000000
  -V(xc)+E(xc)   XCENC  =        38.16699247
  PAW double counting   =      3696.57165193    -3386.34934349
  entropy T*S    EENTRO =         0.00000000
  eigenvalues    EBANDS =      -476.54870483
  atomic energy  EATOM  =      7269.15145414
  Solvation  Ediel_sol  =         0.00000000
  free energy    TOTEN  =      1202.65536373 eV

  energy without entropy =     1202.65536373  energy(sigma->0) =     1202.65536373

[...]

 eigenvalue-minimisations  :  3792
 total energy-change (2. order) :-0.1124152E+04  (-0.1094625E+04)
 number of electron     144.0000000 magnetization
 augmentation part      144.0000000 magnetization

[...]

 Broyden mixing:
  rms(total) = 0.90149E+00    rms(broyden)= 0.90148E+00
  rms(prec ) = 0.11891E+01
  weight for this iteration     100.00

[...]

 eigenvalues of (default mixing * dielectric matrix)
  average eigenvalue GAMMA=   1.5330
  1.5330

[...]

 eigenvalue-minimisations  :  2880
 total energy-change (2. order) : 0.8522048E-04  (-0.7301228E-04)
 number of electron     143.9999988 magnetization
 augmentation part      -17.7280310 magnetization

[...]

 Broyden mixing:
  rms(total) = 0.15682E-04    rms(broyden)= 0.15682E-04
  rms(prec ) = 0.22789E-04
  weight for this iteration     100.00

 eigenvalues of (default mixing * dielectric matrix)
  average eigenvalue GAMMA=   2.3051
  8.7653  7.2528  3.5202  3.5202  2.8601  2.0535  2.0535  2.0155  0.8928  0.8928
  1.2372  1.2372  1.0842  1.0842  1.2242  1.1717  0.9680  0.9680  0.9959

[...]

--------------------------------------- Iteration      1(  25)  ---------------------------------------

 BZINTS: Fermi energy: -0.568988;144.000000 electrons
         Band energy:***********;  BLOECHL correction:  0.000000

 eigenvalue-minimisations  :  1832
 total energy-change (2. order) :-0.4420453E-06  (-0.1623314E-07)
 number of electron     143.9999988 magnetization
 augmentation part      -17.7282459 magnetization

 Free energy of the ion-electron system (eV)
  alpha Z        PSCENC =       170.45750602
  Ewald energy   TEWEN  =     12488.76520436
  -Hartree energ DENC   =    -18906.09521687
  -exchange      EXHF   =         0.00000000
  -V(xc)+E(xc)   XCENC  =        45.07056351
  PAW double counting   =      3834.65457506    -3539.80196151
  entropy T*S    EENTRO =         0.00000000
  eigenvalues    EBANDS =     -1452.27358526
  atomic energy  EATOM  =      7269.15145414
  Solvation  Ediel_sol  =         0.00000000
  free energy    TOTEN  =       -90.07146054 eV

  energy without entropy =      -90.07146054  energy(sigma->0) =      -90.07146054

 average (electrostatic) potential at core
  the test charge radii are     1.2192  0.9892
  (the norm of the test charge is              1.0000)
       1 -41.8722       2 -41.8722       3 -40.0005       4 -40.0005       5 -40.8076
       6 -40.8076       7 -40.6385       8 -40.6385       9 -88.9621      10 -88.9621
      11 -89.3811      12 -89.3811      13 -88.9621      14 -88.9621      15 -89.3811
      16 -89.3811      17 -89.4818      18 -89.4818      19 -88.9811      20 -88.9811
      21 -89.0788      22 -89.0788      23 -89.3954      24 -89.3954

 E-fermi :  -0.5690     XC(G=0):  -4.2463     alpha+bet : -3.8451

 k-point     1 :       0.0000    0.0000    0.0000
  band No.  band energies     occupation
      1     -29.6919      2.00000
      2     -29.6919      2.00000
      3     -28.6582      2.00000
      4     -28.6581      2.00000
      5     -28.4862      2.00000
      6     -28.4830      2.00000
      7     -27.8940      2.00000
      8     -27.8931      2.00000
      9     -15.0057      2.00000
     10     -15.0050      2.00000
     11     -14.9373      2.00000
     12     -14.9370      2.00000
     13     -14.8671      2.00000
     14     -14.8671      2.00000
     15     -14.0605      2.00000
     16     -14.0574      2.00000
     17     -13.9314      2.00000
     18     -13.9302      2.00000
     19     -13.8967      2.00000
     20     -13.8927      2.00000
     21     -13.8613      2.00000
     22     -13.8421      2.00000
     23     -13.8082      2.00000
     24     -13.7862      2.00000
     25     -13.7637      2.00000
     26     -13.7353      2.00000
     27     -13.2922      2.00000
     28     -13.2690      2.00000
     29     -13.2355      2.00000
     30     -13.2326      2.00000
     31     -13.2055      2.00000
     32     -13.1955      2.00000
     33     -11.1989      2.00000
     34     -11.1278      2.00000
     35     -10.7693      2.00000
     36     -10.7364      2.00000
     37      -6.5324      2.00000
     38      -6.5092      2.00000
     39      -6.3249      2.00000
     40      -6.3118      2.00000
     41      -6.3078      2.00000
     42      -6.3005      2.00000
     43      -6.0864      2.00000
     44      -6.0741      2.00000
     45      -5.9229      2.00000
     46      -5.7567      2.00000
     47      -5.7487      2.00000
     48      -5.7462      2.00000
     49      -3.6714      2.00000
     50      -3.1830      2.00000
     51      -2.6841      2.00000
     52      -2.6840      2.00000
     53      -2.5957      2.00000
     54      -2.2624      2.00000
     55      -2.0754      2.00000
     56      -2.0393      2.00000
     57      -1.9572      2.00000
     58      -1.9127      2.00000
     59      -1.8878      2.00000
     60      -1.8101      2.00000
[...]
     74       0.1770      0.00000
     75       0.4339      0.00000
     76       0.5710      0.00000
     77       0.6130      0.00000
     78       0.6329      0.00000
     79       0.7963      0.00000
     80       1.0460      0.00000
     81       1.0697      0.00000
     82       1.0776      0.00000
     83       1.1621      0.00000
     84       1.2348      0.00000
     85       1.2928      0.00000
     86       1.3600      0.00000
     87       1.4038      0.00000
     88       1.4633      0.00000

[...]

 k-point    15 :       0.0000    0.5000    0.4000
  band No.  band energies     occupation
      1     -29.6918      2.00000
      2     -29.6918      2.00000
      3     -28.6582      2.00000
      4     -28.6582      2.00000
      5     -28.4844      2.00000
      6     -28.4844      2.00000
      7     -27.8936      2.00000
      8     -27.8936      2.00000
      9     -15.0020      2.00000
     10     -15.0020      2.00000
     11     -14.9420      2.00000
     12     -14.9420      2.00000
     13     -14.8803      2.00000
     14     -14.8803      2.00000
     15     -14.0532      2.00000
     16     -14.0532      2.00000
     17     -13.9325      2.00000
     18     -13.9325      2.00000
     19     -13.9186      2.00000
     20     -13.9186      2.00000
     21     -13.8607      2.00000
     22     -13.8607      2.00000
     23     -13.8208      2.00000
     24     -13.8208      2.00000
     25     -13.7395      2.00000
     26     -13.7395      2.00000
     27     -13.2756      2.00000
     28     -13.2756      2.00000
     29     -13.2356      2.00000
     30     -13.2356      2.00000
     31     -13.2003      2.00000
     32     -13.2003      2.00000
     33     -11.1127      2.00000
     34     -11.1126      2.00000
     35     -10.6975      2.00000
     36     -10.6974      2.00000
     37      -6.6021      2.00000
     38      -6.6021      2.00000
     39      -6.3001      2.00000
     40      -6.3001      2.00000
     41      -6.2370      2.00000
     42      -6.2370      2.00000
     43      -5.9538      2.00000
     44      -5.9538      2.00000
     45      -5.9103      2.00000
     46      -5.9103      2.00000
     47      -5.7660      2.00000
     48      -5.7660      2.00000
     49      -2.8434      2.00000
     50      -2.8434      2.00000
     51      -2.6612      2.00000
     52      -2.6612      2.00000
     53      -2.3211      2.00000
     54      -2.3211      2.00000
     55      -2.2514      2.00000
     56      -2.2514      2.00000
     57      -2.0272      2.00000
     58      -2.0272      2.00000
     59      -1.8464      2.00000
     60      -1.8464      2.00000
[...]
     74       0.0983      0.00000
     75       0.3577      0.00000
     76       0.3577      0.00000
     77       0.5469      0.00000
     78       0.5469      0.00000
     79       0.7334      0.00000
     80       0.7335      0.00000
     81       0.7577      0.00000
     82       0.7577      0.00000
     83       1.0656      0.00000
     84       1.0657      0.00000
     85       1.2719      0.00000
     86       1.2719      0.00000
     87       1.4084      0.00000
     88       1.4086      0.00000

 soft charge-density along one line, spin component           1
         0         1         2         3         4         5         6         7         8         9
 total charge-density along one line

------------------------ aborting loop because EDIFF is reached ----------------------------------------

  FORCE on cell =-STRESS in cart. coord.  units (eV):
  Direction    XX          YY          ZZ          XY          YZ          ZX
  Alpha Z   170.45751   170.45751   170.45751
  Ewald  -20274.01171 16648.29864 16114.46460    -0.00002     0.00000   135.63033
  Hartree-17185.24023 18254.03263 17837.30588     0.00000    -0.00000   101.81863
  E(xc)    -461.82269  -463.16454  -463.15384    -0.00000     0.00000     0.09140
  Local   36041.27007-36337.63843-35379.13445     0.00001    -0.00000  -234.43601
  n-local   336.82259   337.21874   337.39479     0.06269    -0.19984    -1.91141
  augment  -167.79459  -168.07554  -167.89591    -0.00000    -0.00000     0.38854
  Kinetic  1533.52826  1547.71337  1539.93161    -0.00758    -0.84067    -1.51699
  Fock        0.00000     0.00000     0.00000     0.00000     0.00000     0.00000
  Total      -6.79079   -11.15763   -10.62982     0.00000     0.00000     0.06449
  in kB      -5.76259    -9.46825    -9.02036     0.00000     0.00000     0.05472

 VOLUME and BASIS-vectors are now :
  energy-cutoff  :      500.00
  volume of cell :     1888.05
      direct lattice vectors                 reciprocal lattice vectors
    24.009468079  0.000000000  0.000000000     0.041650236  0.000000000  0.000000000
     0.000000000  6.777849674  0.000000000     0.000000000  0.147539419  0.000000000
     0.000000000  0.000000000 11.602143288     0.000000000  0.000000000  0.086190971

  length of vectors
    24.009468079  6.777849674 11.602143288     0.041650236  0.147539419  0.086190971

 FORCES acting on ions
    electron-ion (+dipol)            ewald-force                    non-local-force                 convergence-correction
   0.796E+03 0.102E-04 0.431E+02   -.791E+03 0.982E-05 -.423E+02   -.399E+01 -.484E-18 -.795E+00   -.336E-03 -.233E-08 0.240E-04
   -.796E+03 -.634E-04 -.431E+02   0.791E+03 -.127E-04 0.423E+02   0.399E+01 -.528E-18 0.795E+00   0.336E-03 0.257E-08 -.240E-04
   0.752E+02 -.596E-04 -.332E+02   -.750E+02 -.194E-04 0.320E+02   -.333E+00 -.235E-19 0.118E+01   0.383E-04 0.397E-08 0.490E-04
   -.752E+02 0.122E-04 0.332E+02   0.750E+02 0.134E-04 -.320E+02   0.333E+00 0.148E-19 -.118E+01   -.383E-04 -.363E-08 -.490E-04
   0.641E+03 -.612E-04 -.507E+02   -.638E+03 -.169E-04 0.513E+02   -.196E+01 -.199E-17 -.590E+00   -.249E-03 0.319E-08 -.151E-03
   -.641E+03 0.904E-05 0.507E+02   0.638E+03 0.147E-04 -.513E+02   0.196E+01 -.245E-17 0.590E+00   0.249E-03 -.300E-08 0.151E-03
   0.373E+03 0.126E-04 -.444E+01   -.372E+03 0.137E-04 0.370E+01   -.122E+01 -.161E-17 0.743E+00   0.426E-04 -.348E-08 0.111E-03
   -.373E+03 -.612E-04 0.444E+01   0.372E+03 -.137E-04 -.370E+01   0.122E+01 0.466E-18 -.743E+00   -.426E-04 0.336E-08 -.111E-03
   0.278E+03 0.359E+02 -.460E+02   -.278E+03 -.376E+02 0.469E+02   -.207E+00 0.173E+01 -.944E+00   -.157E-04 0.381E-05 -.271E-05
   -.278E+03 -.359E+02 0.460E+02   0.278E+03 0.376E+02 -.469E+02   0.207E+00 -.173E+01 0.944E+00   0.157E-04 -.381E-05 0.270E-05
   0.128E+03 -.310E+02 0.270E+01   -.128E+03 0.324E+02 -.161E+01   -.656E+00 -.136E+01 -.109E+01   -.365E-04 -.470E-04 -.395E-04
   -.128E+03 0.310E+02 -.270E+01   0.128E+03 -.324E+02 0.161E+01   0.656E+00 0.136E+01 0.109E+01   0.365E-04 0.470E-04 0.395E-04
   -.278E+03 0.359E+02 0.460E+02   0.278E+03 -.376E+02 -.469E+02   0.207E+00 0.173E+01 0.944E+00   0.157E-04 0.381E-05 0.270E-05
   0.278E+03 -.359E+02 -.460E+02   -.278E+03 0.376E+02 0.469E+02   -.207E+00 -.173E+01 -.944E+00   -.157E-04 -.381E-05 -.271E-05
   -.128E+03 -.310E+02 -.270E+01   0.128E+03 0.324E+02 0.161E+01   0.656E+00 -.136E+01 0.109E+01   0.365E-04 -.470E-04 0.395E-04
   0.128E+03 0.310E+02 0.270E+01   -.128E+03 -.324E+02 -.161E+01   -.656E+00 0.136E+01 -.109E+01   -.365E-04 0.470E-04 -.395E-04
   0.336E+03 -.439E-05 0.457E+02   -.338E+03 -.610E-05 -.462E+02   0.142E+01 0.779E-19 0.446E+00   -.192E-04 0.976E-09 0.442E-04
   -.336E+03 0.616E-05 -.457E+02   0.338E+03 0.632E-05 0.462E+02   -.142E+01 0.778E-19 -.446E+00   0.192E-04 -.110E-08 -.442E-04
   0.323E+02 0.105E-04 -.108E+02   -.307E+02 0.777E-05 0.101E+02   -.135E+01 -.251E-20 0.720E+00   0.105E-04 -.151E-08 0.258E-04
   -.323E+02 -.870E-06 0.108E+02   0.307E+02 -.744E-05 -.101E+02   0.135E+01 0.443E-20 -.720E+00   -.105E-04 0.139E-08 -.258E-04
   0.248E+03 0.443E-05 0.791E+01   -.248E+03 0.813E-05 -.944E+01   -.821E+00 -.733E-18 0.153E+01   -.757E-04 -.131E-08 -.374E-04
   -.248E+03 -.578E-05 -.791E+01   0.248E+03 -.819E-05 0.944E+01   0.821E+00 0.237E-18 -.153E+01   0.757E-04 0.120E-08 0.374E-04
   0.163E+03 -.643E-05 0.611E+02   -.162E+03 -.780E-05 -.629E+02   -.994E+00 -.711E-17 0.183E+01   -.266E-05 0.128E-08 0.809E-04
   -.163E+03 0.375E-05 -.611E+02   0.162E+03 0.757E-05 0.629E+02   0.994E+00 -.896E-17 -.183E+01   0.266E-05 -.133E-08 -.809E-04
   -.107E-03 -.205E-03 0.320E-04   0.114E-12 0.918E-14 0.284E-13   0.222E-15 -.238E-15 -.222E-15   0.644E-07 -.443E-10 -.380E-08

 POSITION                                       TOTAL-FORCE (eV/Angst)
      0.13670      1.69446      8.18866         0.745310     -0.000000     -0.000248
      8.92277      5.08339      3.41349        -0.745310     -0.000000      0.000248
      4.36803      5.08339      2.17023        -0.174215     -0.000000      0.000153
      4.69143      1.69446      9.43191         0.174215      0.000000     -0.000153
      1.43529      5.08339     10.65405         0.745153     -0.000000     -0.000659
      7.62418      1.69446      0.94810        -0.745153      0.000000      0.000659
      3.06944      1.69446      4.63465         0.273276      0.000000     -0.000317
      5.99002      5.08339      6.96750        -0.273276     -0.000000      0.000317
      1.75027      0.48793      1.69840        -0.152566      0.000810     -0.000477
      7.30920      6.28992      9.90375         0.152566     -0.000810      0.000477
      2.75446      6.29419      7.63991         0.050127     -0.000174     -0.000072
      6.30500      0.48366      3.96224        -0.050127      0.000174      0.000072
      7.30920      3.87686      9.90375         0.152566      0.000810      0.000477
      1.75027      2.90099      1.69840        -0.152566     -0.000810     -0.000477
      6.30500      2.90526      3.96224        -0.050127     -0.000174      0.000072
      2.75446      3.87259      7.63991         0.050127      0.000174     -0.000072
      0.74693      5.08339      6.95376        -0.249540      0.000000      0.000550
      8.31254      1.69446      4.64838         0.249540     -0.000000     -0.000550
      3.75780      1.69446      0.99969         0.269897      0.000000     -0.000287
      5.30166      5.08339     10.60246        -0.269897     -0.000000      0.000287
      1.78112      1.69446     11.18255        -0.291332      0.000000      0.000209
      7.27835      5.08339      0.41959         0.291332     -0.000000     -0.000209
      2.72362      5.08339      5.52176        -0.250742      0.000000     -0.000351
      6.33585      1.69446      6.08038         0.250742     -0.000000      0.000351
    total drift:                               -0.000107     -0.000205      0.000032

  FREE ENERGIE OF THE ION-ELECTRON SYSTEM (eV)
  free  energy   TOTEN  =       -90.07146054 eV

  energy  without entropy=      -90.07146054  energy(sigma->0) =      -90.07146054

 writing wavefunctions
 BZINTS: Fermi energy: -0.568988;144.000000 electrons
         Band energy:***********;  BLOECHL correction:  0.000000