 vasp.5.4.4.18Apr17-6-g9f103f2a35 (build Nov 21 2017 15:30:27) complex

 executed on             LinuxIFC date 2020.09.15  08:17:53

 INCAR:
 POTCAR:   PAW_PBE Ba_sv 06Sep2000
 POTCAR:   PAW_PBE Si 05Jan2001

 POTCAR:   PAW_PBE Ba_sv 06Sep2000
   VRHFIN =Ba: 5s5p6s

   TITEL  = PAW_PBE Ba_sv 06Sep2000
   POMASS =  137.327; ZVAL   =   10.000    mass and valenz
   ENMAX  =  187.210; ENMIN  =  140.408 eV
   QCUT   =   -3.709; QGAM   =    7.419    optimization parameters

   Description
     l     E      TYP  RCUT    TYP  RCUT
     0   .000     23  2.800
     0   .000     23  2.800
     1   .000     23  2.700
     1  2.000     23  2.700
     2   .000     23  2.700
     2   .000     23  2.700

 POTCAR:   PAW_PBE Si 05Jan2001
   VRHFIN =Si: s2p2

   TITEL  = PAW_PBE Si 05Jan2001
   POMASS =   28.085; ZVAL   =    4.000    mass and valenz
   ENMAX  =  245.345; ENMIN  =  184.009 eV
   QCUT   =   -4.246; QGAM   =    8.493    optimization parameters

   Description
     l     E      TYP  RCUT    TYP  RCUT
     0   .000     23  1.900
     0   .000     23  1.900
     1   .000     23  1.900
     1   .000     23  1.900
     2   .000      7  1.900

 Optimization of the real space projectors (new method)

 maximal supplied QI-value         = 13.42
 optimisation between [QCUT,QGAM] = [ 11.40, 22.81] = [ 36.42,145.68] Ry
 Optimized for a Real-space Cutoff    1.56 Angstroem

   l    n(q)    QCUT    max X(q) W(low)/X(q) W(high)/X(q)  e(spline)
   0     11    11.404     7.198    0.14E-04    0.26E-04    0.99E-07
   0     11    11.404    15.603    0.29E-04    0.72E-04    0.44E-06
   1     10    11.404     3.746    0.20E-04    0.24E-04    0.43E-07
   1     10    11.404     4.362    0.22E-03    0.97E-04    0.22E-06
   2     10    11.404     5.782    0.83E-04    0.62E-05    0.27E-06
   2     10    11.404    65.505    0.42E-03    0.31E-04    0.12E-05
 Optimization of the real space projectors (new method)

 maximal supplied QI-value         = 19.84
 optimisation between [QCUT,QGAM] = [ 11.31, 22.82] = [ 35.82,145.81] Ry
 Optimized for a Real-space Cutoff    1.16 Angstroem

   l    n(q)    QCUT    max X(q) W(low)/X(q) W(high)/X(q)  e(spline)
   0      8    11.310     8.708    0.14E-04    0.11E-04    0.43E-08
   0      8    11.310   106.241    0.27E-03    0.30E-03    0.38E-07
   1      7    11.310     5.901    0.82E-05    0.48E-04    0.19E-07
   1      7    11.310    73.241    0.27E-03    0.27E-03    0.74E-07

 PAW_PBE Ba_sv 06Sep2000                :
 PAW_PBE Si 05Jan2001                   :

 POSCAR: ba8 si16
  positions in direct lattice
  velocities in cartesian coordinates
 exchange correlation table for  LEXCH =       43
   RHO(1)=    0.500       N(1)  =     2000
   RHO(2)=  100.500       N(2)  =     4000

 ion  position               nearest neighbor table
   1  0.006  0.250  0.706-  21 3.41  16 3.45  11 3.45  17 3.66  17 3.66   5 4.38   5 4.38   7 4.61

   2  0.374  0.750  0.294-  22 3.41  12 3.45  15 3.45  18 3.66  18 3.66   6 4.38   6 4.38   8 4.61

   3  0.182  0.750  0.187-  20 3.31  22 3.43   9 3.44  14 3.44  12 3.45  15 3.45  19 3.64  19 3.64
                            23 3.74   5 4.28   7 4.39   7 4.39
   4  0.197  0.250  0.813-  19 3.31  21 3.43  13 3.44  10 3.44  16 3.45  11 3.45  20 3.64  20 3.64
                            24 3.74   6 4.28   8 4.39   8 4.39
   5  0.060  0.750  0.918-   9 3.44  14 3.44  21 3.45  21 3.45  11 3.50  16 3.50  17 3.76  20 3.92
                             3 4.28   1 4.38   1 4.38
   6  0.320  0.250  0.082-  13 3.44  10 3.44  22 3.45  22 3.45  15 3.50  12 3.50  18 3.76  19 3.92
                             4 4.28   2 4.38   2 4.38
   7  0.128  0.250  0.399-  14 3.44   9 3.44  23 3.52  23 3.52  15 3.57  12 3.57  24 3.62  19 3.70
                            16 3.73  11 3.73   3 4.39   3 4.39   1 4.61
   8  0.252  0.750  0.601-  10 3.44  13 3.44  24 3.52  24 3.52  11 3.57  16 3.57  23 3.62  20 3.70
                            12 3.73  15 3.73   4 4.39   4 4.39   2 4.61
   9  0.073  0.072  0.146-  14 2.41  21 2.44  19 2.44   7 3.44   3 3.44   5 3.44
  10  0.307  0.928  0.854-  13 2.41  22 2.44  20 2.44   8 3.44   4 3.44   6 3.44
  11  0.115  0.929  0.659-  16 2.42  23 2.44  17 2.44   1 3.45   4 3.45   5 3.50   8 3.57   7 3.73

[...]

  21  0.074  0.250  0.963-  19 2.43  14 2.44   9 2.44   1 3.41   4 3.43   5 3.45   5 3.45
  22  0.305  0.750  0.037-  20 2.43  10 2.44  13 2.44   2 3.41   3 3.43   6 3.45   6 3.45
  23  0.113  0.750  0.476-  17 2.44  11 2.44  16 2.44   7 3.52   7 3.52   8 3.62   3 3.74
  24  0.266  0.250  0.524-  18 2.44  15 2.44  12 2.44   8 3.52   8 3.52   7 3.62   4 3.74

  LATTYP: Found a simple orthorhombic cell.
 ALAT       =     6.7778496742
 B/A-ratio  =     1.7117734747
 C/A-ratio  =     3.5423429602

  Lattice vectors:

 A1 = (   0.0000000000,   6.7778496742,   0.0000000000)
 A2 = (   0.0000000000,   0.0000000000, -11.6021432877)
 A3 = ( -24.0094680786,   0.0000000000,   0.0000000000)

Analysis of symmetry for initial positions (statically):
 Subroutine PRICEL returns:
 Original cell was already a primitive cell.

 Routine SETGRP: Setting up the symmetry group for a
 simple orthorhombic supercell.

 Subroutine GETGRP returns: Found  4 space group operations
 (whereof  1 operations were pure point group operations)
 out of a pool of  8 trial point group operations.

The static configuration has the point symmetry C_1 .
 The point group associated with its full space group is C_2h.

Analysis of symmetry for dynamics (positions and initial velocities):
 Subroutine PRICEL returns:
 Original cell was already a primitive cell.

[...]

The dynamic configuration has the point symmetry C_1 .
 The point group associated with its full space group is C_2h.

Analysis of constrained symmetry for selective dynamics:
 Subroutine PRICEL returns:
 Original cell was already a primitive cell.

 Routine SETGRP: Setting up the symmetry group for a
 simple orthorhombic supercell.

 Subroutine GETGRP returns: Found  4 space group operations
 (whereof  1 operations were pure point group operations)
 out of a pool of  8 trial point group operations.

The constrained configuration has the point symmetry C_1 .
 The point group associated with its full space group is C_2h.

 Subroutine INISYM returns: Found  4 space group operations
 (whereof  1 operations are pure point group operations),
 and found     1 'primitive' translations

 KPOINTS: k-density: 8.0

Automatic generation of k-mesh.
Space group operators:
 irot       det(A)        alpha          n_x          n_y          n_z        tau_x        tau_y        tau_z
    1     1.000000     0.000000     1.000000     0.000000     0.000000     0.000000     0.000000     0.000000
    2    -1.000000     0.000000     1.000000     0.000000     0.000000    -0.620589     0.000000     0.000000
    3     1.000000   180.000000     0.000000     1.000000     0.000000    -0.620589     0.500000     0.000000
    4    -1.000000   180.000000     0.000000     1.000000     0.000000     0.000000     0.500000     0.000000

 Subroutine IBZKPT returns following result:

 Found     15 irreducible k-points:

 Following reciprocal coordinates:
            Coordinates               Weight
  0.000000  0.000000  0.000000      1.000000
  0.000000  0.125000  0.000000      2.000000
  0.000000  0.250000  0.000000      2.000000
  0.000000  0.375000  0.000000      2.000000
  0.000000  0.500000  0.000000      1.000000
  0.000000  0.000000  0.200000      2.000000
  0.000000  0.125000  0.200000      4.000000
  0.000000  0.250000  0.200000      4.000000
  0.000000  0.375000  0.200000      4.000000
  0.000000  0.500000  0.200000      2.000000
  0.000000  0.000000  0.400000      2.000000
  0.000000  0.125000  0.400000      4.000000
  0.000000  0.250000  0.400000      4.000000
  0.000000  0.375000  0.400000      4.000000
  0.000000  0.500000  0.400000      2.000000

 Following cartesian coordinates:
            Coordinates               Weight
  0.000000  0.000000  0.000000      1.000000
  0.000000  0.018442  0.000000      2.000000
  0.000000  0.036885  0.000000      2.000000
  0.000000  0.055327  0.000000      2.000000
  0.000000  0.073770  0.000000      1.000000
  0.000000  0.000000  0.017238      2.000000
  0.000000  0.018442  0.017238      4.000000
  0.000000  0.036885  0.017238      4.000000
  0.000000  0.055327  0.017238      4.000000
  0.000000  0.073770  0.017238      2.000000
  0.000000  0.000000  0.034476      2.000000
  0.000000  0.018442  0.034476      4.000000
  0.000000  0.036885  0.034476      4.000000
  0.000000  0.055327  0.034476      4.000000
  0.000000  0.073770  0.034476      2.000000

 TETIRR: Found    108 inequivalent tetrahedra from      240

 SYSTEM =  unknown system
 POSCAR =  ba8 si16

 Startparameter for this run:
   NWRITE =      2    write-flag & timer
   PREC   = normal    normal or accurate (medium, high low for compatibility)
   ISTART =      0    job   : 0-new  1-cont  2-samecut
   ICHARG =      2    charge: 1-file 2-atom 10-const
   ISPIN  =      1    spin polarized calculation?
   LNONCOLLINEAR =      F non collinear calculations
   LSORBIT =      F    spin-orbit coupling
   INIWAV =      1    electr: 0-lowe 1-rand  2-diag
   LASPH  =      T    aspherical Exc in radial PAW
   METAGGA=      F    non-selfconsistent MetaGGA calc.

 Electronic Relaxation 1
   ENCUT  =  500.0 eV  36.75 Ry    6.06 a.u.  43.77 12.36 21.15*2*pi/ulx,y,z
   ENINI  =  500.0     initial cutoff
   ENAUG  =  351.2 eV  augmentation charge cutoff
   NELM   =    100;   NELMIN=  2; NELMDL= -5     # of ELM steps
   EDIFF  = 0.1E-05   stopping-criterion for ELM
   LREAL  =      T    real-space projection
   NLSPLINE    = F    spline interpolate recip. space projectors
   LCOMPAT=      F    compatible to vasp.4.4
   GGA_COMPAT  = T    GGA compatible to vasp.4.4-vasp.4.6
   LMAXPAW     = -100 max onsite density
   LMAXMIX     =    2 max onsite mixed and CHGCAR
   VOSKOWN=      0    Vosko Wilk Nusair interpolation
   ROPT   =   -0.00050  -0.00050
 Ionic relaxation
   EDIFFG = -.1E-02   stopping-criterion for IOM
   NSW    =      0    number of steps for IOM
   NBLOCK =      1;   KBLOCK =      1    inner block; outer block
   IBRION =     -1    ionic relax: 0-MD 1-quasi-New 2-CG
   NFREE  =      0    steps in history (QN), initial steepest desc. (CG)
   ISIF   =      2    stress and relaxation
   IWAVPR =     10    prediction:  0-non 1-charg 2-wave 3-comb
   ISYM   =      2    0-nonsym 1-usesym 2-fastsym
   LCORR  =      T    Harris-Foulkes like correction to forces

   POTIM  = 0.3000    time-step for ionic-motion
   TEIN   =    0.0    initial temperature
   TEBEG  =    0.0;   TEEND  =   0.0 temperature during run
   SMASS  =  -3.00    Nose mass-parameter (am)
   estimated Nose-frequenzy (Omega)   =  0.10E-29 period in steps =****** mass=  -0.132E-25a.u.
   SCALEE = 1.0000    scale energy and forces
   NPACO  =    256;   APACO  = 16.0  distance and # of slots for P.C.
   PSTRESS=    0.0 pullay stress

  Mass of Ions in am
   POMASS = 137.33 28.09
  Ionic Valenz
   ZVAL   =  10.00  4.00
  Atomic Wigner-Seitz radii
  virtual crystal weights
   VCA    =   1.00  1.00
   NELECT =     144.0000    total number of electrons
   NUPDOWN=      -1.0000    fix difference up-down

[...]

 BZINTS: Fermi energy:  6.862129;144.000000 electrons
         Band energy:-476.328372;  BLOECHL correction: -0.027761

 eigenvalue-minimisations  :  2768
 total energy-change (2. order) : 0.1200515E+04  (-0.4772639E+04)
 number of electron     144.0000000 magnetization
 augmentation part      144.0000000 magnetization

 Free energy of the ion-electron system (eV)
  alpha Z        PSCENC =       170.45750602
  Ewald energy   TEWEN  =     12318.23131006
  -Hartree energ DENC   =    -18429.17337169
  -exchange      EXHF   =         0.00000000
  -V(xc)+E(xc)   XCENC  =        37.95449373
  PAW double counting   =      3696.57165193    -3386.34934349
  entropy T*S    EENTRO =         0.00000000
  eigenvalues    EBANDS =      -476.32837178
  atomic energy  EATOM  =      7269.15145414
  Solvation  Ediel_sol  =         0.00000000
  free energy    TOTEN  =      1200.51532893 eV

  energy without entropy =     1200.51532893  energy(sigma->0) =     1200.51532893

[...]

 eigenvalue-minimisations  :  3808
 total energy-change (2. order) :-0.1122203E+04  (-0.1092866E+04)
 number of electron     144.0000000 magnetization
 augmentation part      144.0000000 magnetization

[...]

 Broyden mixing:
  rms(total) = 0.90174E+00    rms(broyden)= 0.90174E+00
  rms(prec ) = 0.11860E+01
  weight for this iteration     100.00

[...]

 eigenvalues of (default mixing * dielectric matrix)
  average eigenvalue GAMMA=   1.5357
  1.5357

[...]

 eigenvalue-minimisations  :  2864
 total energy-change (2. order) : 0.1936000E-03  (-0.7360724E-04)
 number of electron     144.0000003 magnetization
 augmentation part      -17.7219984 magnetization

[...]

 Broyden mixing:
  rms(total) = 0.15646E-04    rms(broyden)= 0.15646E-04
  rms(prec ) = 0.22714E-04
  weight for this iteration     100.00

 eigenvalues of (default mixing * dielectric matrix)
  average eigenvalue GAMMA=   2.3065
  8.7894  7.2344  3.5150  3.5150  2.8728  2.1035  2.0201  2.0201  0.8921  0.8921
  1.2413  1.2413  1.2003  1.2003  1.0836  1.0836  0.9817  0.9685  0.9685

[...]

--------------------------------------- Iteration      1(  25)  ---------------------------------------

 BZINTS: Fermi energy: -0.556539;144.000000 electrons
         Band energy:***********;  BLOECHL correction:  0.000000

 eigenvalue-minimisations  :  1832
 total energy-change (2. order) :-0.4575140E-06  (-0.1532920E-07)
 number of electron     144.0000003 magnetization
 augmentation part      -17.7222132 magnetization

 Free energy of the ion-electron system (eV)
  alpha Z        PSCENC =       170.45750602
  Ewald energy   TEWEN  =     12318.23131006
  -Hartree energ DENC   =    -18734.77531460
  -exchange      EXHF   =         0.00000000
  -V(xc)+E(xc)   XCENC  =        44.87679001
  PAW double counting   =      3832.20819821    -3537.33529513
  entropy T*S    EENTRO =         0.00000000
  eigenvalues    EBANDS =     -1452.83339715
  atomic energy  EATOM  =      7269.15145414
  Solvation  Ediel_sol  =         0.00000000
  free energy    TOTEN  =       -90.01874845 eV

  energy without entropy =      -90.01874845  energy(sigma->0) =      -90.01874845

 average (electrostatic) potential at core
  the test charge radii are     1.2192  0.9892
  (the norm of the test charge is              1.0000)
       1 -41.8612       2 -41.8612       3 -40.0452       4 -40.0452       5 -40.8141
       6 -40.8141       7 -40.6828       8 -40.6828       9 -88.9642      10 -88.9642
      11 -89.3783      12 -89.3783      13 -88.9642      14 -88.9641      15 -89.3783
      16 -89.3783      17 -89.4763      18 -89.4763      19 -88.9813      20 -88.9813
      21 -89.0871      22 -89.0871      23 -89.3914      24 -89.3914

 E-fermi :  -0.5565     XC(G=0):  -4.2491     alpha+bet : -3.8451

 k-point     1 :       0.0000    0.0000    0.0000
  band No.  band energies     occupation
      1     -29.6814      2.00000
      2     -29.6814      2.00000
      3     -28.6648      2.00000
      4     -28.6647      2.00000
      5     -28.5258      2.00000
      6     -28.5229      2.00000
      7     -27.9327      2.00000
      8     -27.9318      2.00000
      9     -14.9955      2.00000
     10     -14.9948      2.00000
     11     -14.9275      2.00000
     12     -14.9272      2.00000
     13     -14.8574      2.00000
     14     -14.8574      2.00000
     15     -14.0689      2.00000
     16     -14.0662      2.00000
     17     -13.9390      2.00000
     18     -13.9372      2.00000
     19     -13.9022      2.00000
     20     -13.8980      2.00000
     21     -13.8848      2.00000
     22     -13.8711      2.00000
     23     -13.8387      2.00000
     24     -13.8149      2.00000
     25     -13.7989      2.00000
     26     -13.7676      2.00000
     27     -13.3223      2.00000
     28     -13.2980      2.00000
     29     -13.2645      2.00000
     30     -13.2601      2.00000
     31     -13.2373      2.00000
     32     -13.2273      2.00000
     33     -11.1845      2.00000
     34     -11.1175      2.00000
     35     -10.7699      2.00000
     36     -10.7385      2.00000
     37      -6.5197      2.00000
     38      -6.4989      2.00000
     39      -6.3114      2.00000
     40      -6.2959      2.00000
     41      -6.2929      2.00000
     42      -6.2926      2.00000
     43      -6.0923      2.00000
     44      -6.0711      2.00000
     45      -5.9239      2.00000
     46      -5.7568      2.00000
     47      -5.7511      2.00000
     48      -5.7478      2.00000
     49      -3.6599      2.00000
     50      -3.1845      2.00000
     51      -2.6821      2.00000
     52      -2.6795      2.00000
     53      -2.5842      2.00000
     54      -2.2646      2.00000
     55      -2.0706      2.00000
     56      -2.0267      2.00000
     57      -1.9453      2.00000
     58      -1.9012      2.00000
     59      -1.8830      2.00000
     60      -1.8008      2.00000
[...]
     74       0.1770      0.00000
     75       0.4439      0.00000
     76       0.5780      0.00000
     77       0.6159      0.00000
     78       0.6425      0.00000
     79       0.7933      0.00000
     80       1.0411      0.00000
     81       1.0721      0.00000
     82       1.0942      0.00000
     83       1.1554      0.00000
     84       1.2393      0.00000
     85       1.2959      0.00000
     86       1.3581      0.00000
     87       1.3977      0.00000
     88       1.4638      0.00000

[...]

 k-point    15 :       0.0000    0.5000    0.4000
  band No.  band energies     occupation
      1     -29.6813      2.00000
      2     -29.6813      2.00000
      3     -28.6647      2.00000
      4     -28.6647      2.00000
      5     -28.5241      2.00000
      6     -28.5241      2.00000
      7     -27.9323      2.00000
      8     -27.9323      2.00000
      9     -14.9919      2.00000
     10     -14.9919      2.00000
     11     -14.9324      2.00000
     12     -14.9324      2.00000
     13     -14.8707      2.00000
     14     -14.8706      2.00000
     15     -14.0617      2.00000
     16     -14.0617      2.00000
     17     -13.9405      2.00000
     18     -13.9405      2.00000
     19     -13.9247      2.00000
     20     -13.9247      2.00000
     21     -13.8836      2.00000
     22     -13.8836      2.00000
     23     -13.8514      2.00000
     24     -13.8514      2.00000
     25     -13.7733      2.00000
     26     -13.7733      2.00000
     27     -13.3059      2.00000
     28     -13.3058      2.00000
     29     -13.2639      2.00000
     30     -13.2639      2.00000
     31     -13.2317      2.00000
     32     -13.2317      2.00000
     33     -11.1006      2.00000
     34     -11.1006      2.00000
     35     -10.6988      2.00000
     36     -10.6988      2.00000
     37      -6.5910      2.00000
     38      -6.5910      2.00000
     39      -6.2883      2.00000
     40      -6.2883      2.00000
     41      -6.2277      2.00000
     42      -6.2277      2.00000
     43      -5.9540      2.00000
     44      -5.9539      2.00000
     45      -5.9106      2.00000
     46      -5.9106      2.00000
     47      -5.7674      2.00000
     48      -5.7673      2.00000
     49      -2.8307      2.00000
     50      -2.8307      2.00000
     51      -2.6574      2.00000
     52      -2.6574      2.00000
     53      -2.3066      2.00000
     54      -2.3066      2.00000
     55      -2.2394      2.00000
     56      -2.2394      2.00000
     57      -2.0261      2.00000
     58      -2.0261      2.00000
     59      -1.8389      2.00000
     60      -1.8389      2.00000
[...]
     74       0.1078      0.00000
     75       0.3629      0.00000
     76       0.3630      0.00000
     77       0.5539      0.00000
     78       0.5539      0.00000
     79       0.7318      0.00000
     80       0.7319      0.00000
     81       0.7616      0.00000
     82       0.7616      0.00000
     83       1.0645      0.00000
     84       1.0646      0.00000
     85       1.2682      0.00000
     86       1.2683      0.00000
     87       1.4058      0.00000
     88       1.4058      0.00000

 soft charge-density along one line, spin component           1
         0         1         2         3         4         5         6         7         8         9
 total charge-density along one line

------------------------ aborting loop because EDIFF is reached ----------------------------------------

  FORCE on cell =-STRESS in cart. coord.  units (eV):
  Direction    XX          YY          ZZ          XY          YZ          ZX
  Alpha Z   170.45751   170.45751   170.45751
  Ewald  -20097.76508 16475.55405 15940.42861    -0.00002     0.00000   137.95322
  Hartree-17012.37483 18082.39965 17664.75322     0.00000    -0.00000   103.67005
  E(xc)    -461.65681  -462.97489  -462.96618    -0.00000    -0.00000     0.08665
  Local   35692.52445-35993.18508-35032.56416     0.00001    -0.00000  -238.73105
  n-local   336.75364   337.05860   337.34554     0.06219    -0.20335    -1.83992
  augment  -167.74791  -168.04753  -167.88195    -0.00000    -0.00000     0.37404
  Kinetic  1531.93837  1547.13325  1539.29928    -0.01460    -0.84529    -1.37509
  Fock        0.00000     0.00000     0.00000     0.00000     0.00000     0.00000
  Total      -7.87066   -11.60445   -11.12813     0.00000     0.00000     0.13791
  in kB      -6.67896    -9.84742    -9.44322     0.00000     0.00000     0.11703

 VOLUME and BASIS-vectors are now :
  energy-cutoff  :      500.00
  volume of cell :     1888.05
      direct lattice vectors                 reciprocal lattice vectors
    24.009468079  0.000000000  0.000000000     0.041650236  0.000000000  0.000000000
     0.000000000  6.777849674  0.000000000     0.000000000  0.147539419  0.000000000
     0.000000000  0.000000000 11.602143288     0.000000000  0.000000000  0.086190971

  length of vectors
    24.009468079  6.777849674 11.602143288     0.041650236  0.147539419  0.086190971

 FORCES acting on ions
    electron-ion (+dipol)            ewald-force                    non-local-force                 convergence-correction
   0.792E+03 0.102E-04 0.434E+02   -.787E+03 0.983E-05 -.426E+02   -.400E+01 0.217E-18 -.792E+00   -.332E-03 -.225E-08 0.212E-04
   -.792E+03 -.634E-04 -.434E+02   0.787E+03 -.127E-04 0.426E+02   0.400E+01 -.487E-19 0.792E+00   0.332E-03 0.247E-08 -.212E-04
   0.773E+02 -.598E-04 -.340E+02   -.771E+02 -.191E-04 0.328E+02   -.279E+00 0.368E-19 0.119E+01   0.354E-04 0.382E-08 0.631E-04
   -.773E+02 0.119E-04 0.340E+02   0.771E+02 0.133E-04 -.328E+02   0.279E+00 -.316E-19 -.119E+01   -.354E-04 -.351E-08 -.631E-04
   0.637E+03 -.611E-04 -.503E+02   -.635E+03 -.168E-04 0.509E+02   -.191E+01 0.751E-18 -.557E+00   -.247E-03 0.307E-08 -.142E-03
   -.637E+03 0.904E-05 0.503E+02   0.635E+03 0.147E-04 -.509E+02   0.191E+01 0.836E-18 0.557E+00   0.247E-03 -.290E-08 0.142E-03
   0.370E+03 0.124E-04 -.543E+01   -.369E+03 0.136E-04 0.470E+01   -.111E+01 -.403E-17 0.727E+00   0.422E-04 -.336E-08 0.113E-03
   -.370E+03 -.613E-04 0.543E+01   0.369E+03 -.137E-04 -.470E+01   0.111E+01 -.487E-17 -.727E+00   -.422E-04 0.323E-08 -.113E-03
   0.277E+03 0.358E+02 -.460E+02   -.277E+03 -.375E+02 0.470E+02   -.192E+00 0.173E+01 -.942E+00   -.137E-04 0.212E-05 0.396E-05
   -.277E+03 -.358E+02 0.460E+02   0.277E+03 0.375E+02 -.470E+02   0.192E+00 -.173E+01 0.942E+00   0.137E-04 -.212E-05 -.397E-05
   0.127E+03 -.311E+02 0.282E+01   -.126E+03 0.325E+02 -.171E+01   -.545E+00 -.137E+01 -.111E+01   -.274E-04 -.400E-04 -.437E-04
   -.127E+03 0.311E+02 -.282E+01   0.126E+03 -.325E+02 0.171E+01   0.545E+00 0.137E+01 0.111E+01   0.274E-04 0.400E-04 0.437E-04
   -.277E+03 0.358E+02 0.460E+02   0.277E+03 -.375E+02 -.470E+02   0.192E+00 0.173E+01 0.942E+00   0.137E-04 0.212E-05 -.397E-05
   0.277E+03 -.358E+02 -.460E+02   -.277E+03 0.375E+02 0.470E+02   -.192E+00 -.173E+01 -.942E+00   -.137E-04 -.212E-05 0.396E-05
   -.127E+03 -.311E+02 -.282E+01   0.126E+03 0.325E+02 0.171E+01   0.545E+00 -.137E+01 0.111E+01   0.274E-04 -.400E-04 0.437E-04
   0.127E+03 0.311E+02 0.282E+01   -.126E+03 -.325E+02 -.171E+01   -.545E+00 0.137E+01 -.111E+01   -.274E-04 0.400E-04 -.437E-04
   0.335E+03 -.442E-05 0.458E+02   -.336E+03 -.608E-05 -.463E+02   0.144E+01 0.871E-19 0.450E+00   -.201E-04 0.945E-09 0.378E-04
   -.335E+03 0.615E-05 -.458E+02   0.336E+03 0.631E-05 0.463E+02   -.144E+01 -.423E-19 -.450E+00   0.201E-04 -.106E-08 -.378E-04
   0.325E+02 0.102E-04 -.108E+02   -.309E+02 0.772E-05 0.101E+02   -.135E+01 -.118E-19 0.702E+00   0.105E-04 -.146E-08 0.287E-04
   -.325E+02 -.109E-05 0.108E+02   0.309E+02 -.740E-05 -.101E+02   0.135E+01 0.544E-20 -.702E+00   -.105E-04 0.134E-08 -.287E-04
   0.246E+03 0.442E-05 0.849E+01   -.246E+03 0.812E-05 -.100E+02   -.674E+00 0.228E-17 0.153E+01   -.735E-04 -.127E-08 -.387E-04
   -.246E+03 -.577E-05 -.849E+01   0.246E+03 -.817E-05 0.100E+02   0.674E+00 0.237E-17 -.153E+01   0.735E-04 0.116E-08 0.387E-04
   0.161E+03 -.640E-05 0.604E+02   -.161E+03 -.775E-05 -.623E+02   -.923E+00 0.101E-16 0.186E+01   0.369E-05 0.124E-08 0.727E-04
   -.161E+03 0.372E-05 -.604E+02   0.161E+03 0.753E-05 0.623E+02   0.923E+00 0.777E-17 -.186E+01   -.369E-05 -.128E-08 -.727E-04
   0.107E-03 -.206E-03 0.908E-04   0.000E+00 0.371E-13 0.284E-13   0.000E+00 0.245E-15 -.444E-15   -.342E-07 -.760E-10 -.507E-08

 POSITION                                       TOTAL-FORCE (eV/Angst)
      0.13670      1.69446      8.19193         0.754312     -0.000000     -0.000457
      8.97277      5.08339      3.41021        -0.754312     -0.000000      0.000457
      4.36803      5.08339      2.16814        -0.080694      0.000000     -0.000584
      4.74143      1.69446      9.43400         0.080694     -0.000000      0.000584
      1.43529      5.08339     10.65034         0.746732     -0.000000     -0.000121
      7.67418      1.69446      0.95180        -0.746732     -0.000000      0.000121
      3.06944      1.69446      4.63032         0.340963      0.000000     -0.000259
      6.04002      5.08339      6.97183        -0.340963      0.000000      0.000259
      1.75027      0.48802      1.69285        -0.141794     -0.000188      0.000414
      7.35920      6.28983      9.90929         0.141794      0.000188     -0.000414
      2.75446      6.29549      7.64327         0.100392     -0.000093      0.000000
      6.35500      0.48236      3.95887        -0.100392      0.000093     -0.000000
      7.35920      3.87694      9.90929         0.141794     -0.000188     -0.000414
      1.75027      2.90091      1.69285        -0.141794      0.000188      0.000414
      6.35500      2.90656      3.95887        -0.100392     -0.000093     -0.000000
      2.75446      3.87129      7.64327         0.100392      0.000093      0.000000
      0.74693      5.08339      6.95713        -0.249436     -0.000000     -0.000072
      8.36254      1.69446      4.64502         0.249436      0.000000      0.000072
      3.75780      1.69446      0.99298         0.299531     -0.000000     -0.000659
      5.35166      5.08339     10.60916        -0.299531     -0.000000      0.000659
      1.78112      1.69446     11.17528        -0.256262      0.000000      0.000778
      7.32835      5.08339      0.42686         0.256262      0.000000     -0.000778
      2.72362      5.08339      5.52393        -0.215848      0.000000     -0.000031
      6.38585      1.69446      6.07821         0.215848     -0.000000      0.000031
    total drift:                                0.000107     -0.000206      0.000091

  FREE ENERGIE OF THE ION-ELECTRON SYSTEM (eV)
  free  energy   TOTEN  =       -90.01874845 eV

  energy  without entropy=      -90.01874845  energy(sigma->0) =      -90.01874845

 writing wavefunctions
 BZINTS: Fermi energy: -0.556539;144.000000 electrons
         Band energy:***********;  BLOECHL correction:  0.000000