 vasp.5.4.4.18Apr17-6-g9f103f2a35 (build Nov 21 2017 15:30:27) complex

 executed on             LinuxIFC date 2020.09.15  14:18:23

 INCAR:
 POTCAR:   PAW_PBE Ba_sv 06Sep2000
 POTCAR:   PAW_PBE Si 05Jan2001

 POTCAR:   PAW_PBE Ba_sv 06Sep2000
   VRHFIN =Ba: 5s5p6s

   TITEL  = PAW_PBE Ba_sv 06Sep2000
   POMASS =  137.327; ZVAL   =   10.000    mass and valenz
   ENMAX  =  187.210; ENMIN  =  140.408 eV
   QCUT   =   -3.709; QGAM   =    7.419    optimization parameters

   Description
     l     E      TYP  RCUT    TYP  RCUT
     0   .000     23  2.800
     0   .000     23  2.800
     1   .000     23  2.700
     1  2.000     23  2.700
     2   .000     23  2.700
     2   .000     23  2.700

 POTCAR:   PAW_PBE Si 05Jan2001
   VRHFIN =Si: s2p2

   TITEL  = PAW_PBE Si 05Jan2001
   POMASS =   28.085; ZVAL   =    4.000    mass and valenz
   ENMAX  =  245.345; ENMIN  =  184.009 eV
   QCUT   =   -4.246; QGAM   =    8.493    optimization parameters

   Description
     l     E      TYP  RCUT    TYP  RCUT
     0   .000     23  1.900
     0   .000     23  1.900
     1   .000     23  1.900
     1   .000     23  1.900
     2   .000      7  1.900

 Optimization of the real space projectors (new method)

 maximal supplied QI-value         = 13.42
 optimisation between [QCUT,QGAM] = [ 11.40, 22.81] = [ 36.42,145.68] Ry
 Optimized for a Real-space Cutoff    1.56 Angstroem

   l    n(q)    QCUT    max X(q) W(low)/X(q) W(high)/X(q)  e(spline)
   0     11    11.404     7.198    0.14E-04    0.26E-04    0.99E-07
   0     11    11.404    15.603    0.29E-04    0.72E-04    0.44E-06
   1     10    11.404     3.746    0.20E-04    0.24E-04    0.43E-07
   1     10    11.404     4.362    0.22E-03    0.97E-04    0.22E-06
   2     10    11.404     5.782    0.83E-04    0.62E-05    0.27E-06
   2     10    11.404    65.505    0.42E-03    0.31E-04    0.12E-05
 Optimization of the real space projectors (new method)

 maximal supplied QI-value         = 19.84
 optimisation between [QCUT,QGAM] = [ 11.31, 22.82] = [ 35.82,145.81] Ry
 Optimized for a Real-space Cutoff    1.16 Angstroem

   l    n(q)    QCUT    max X(q) W(low)/X(q) W(high)/X(q)  e(spline)
   0      8    11.310     8.708    0.14E-04    0.11E-04    0.43E-08
   0      8    11.310   106.241    0.27E-03    0.30E-03    0.38E-07
   1      7    11.310     5.901    0.82E-05    0.48E-04    0.19E-07
   1      7    11.310    73.241    0.27E-03    0.27E-03    0.74E-07

 PAW_PBE Ba_sv 06Sep2000                :
 PAW_PBE Si 05Jan2001                   :

 POSCAR: ba8 si16
  positions in direct lattice
  velocities in cartesian coordinates
 exchange correlation table for  LEXCH =       43
   RHO(1)=    0.500       N(1)  =     2000
   RHO(2)=  100.500       N(2)  =     4000

 ion  position               nearest neighbor table
   1  0.006  0.250  0.703-  21 3.39  16 3.44  11 3.44  17 3.65  17 3.65   5 4.38   5 4.38   7 4.61

   2  0.390  0.750  0.297-  22 3.39  12 3.44  15 3.44  18 3.65  18 3.65   6 4.38   6 4.38   8 4.61

   3  0.182  0.750  0.185-  20 3.37   9 3.44  14 3.44  19 3.65  19 3.65  12 3.70  15 3.70  22 3.75
                            23 3.76   5 4.30   7 4.38   7 4.38
   4  0.214  0.250  0.815-  19 3.37  13 3.44  10 3.44  20 3.65  20 3.65  16 3.70  11 3.70  21 3.75
                            24 3.76   6 4.30   8 4.38   8 4.38
   5  0.060  0.750  0.914-   9 3.44  14 3.44  21 3.45  21 3.45  11 3.46  16 3.46  17 3.71   3 4.30
                             1 4.38   1 4.38
   6  0.336  0.250  0.086-  13 3.44  10 3.44  22 3.45  22 3.45  15 3.46  12 3.46  18 3.71   4 4.30
                             2 4.38   2 4.38
   7  0.128  0.250  0.397-  14 3.45   9 3.45  23 3.53  23 3.53  19 3.74  16 3.76  11 3.76  15 3.94
                            12 3.94   3 4.38   3 4.38   1 4.61
   8  0.268  0.750  0.603-  10 3.45  13 3.45  24 3.53  24 3.53  20 3.74  12 3.76  15 3.76  11 3.94
                            16 3.94   4 4.38   4 4.38   2 4.61
   9  0.073  0.072  0.142-  14 2.41  21 2.44  19 2.45   5 3.44   3 3.44   7 3.45
  10  0.323  0.928  0.858-  13 2.41  22 2.44  20 2.45   6 3.44   4 3.44   8 3.45
  11  0.115  0.930  0.660-  16 2.44  17 2.45  23 2.45   1 3.44   5 3.46   4 3.70   7 3.76   8 3.94

[...]

  17  0.031  0.750  0.600-  23 2.44  11 2.45  16 2.45   1 3.65   1 3.65   5 3.71
  18  0.365  0.250  0.400-  24 2.44  15 2.45  12 2.45   2 3.65   2 3.65   6 3.71
  19  0.157  0.250  0.080-  21 2.42  14 2.45   9 2.45   4 3.37   3 3.65   3 3.65   7 3.74
  20  0.240  0.750  0.920-  22 2.42  10 2.45  13 2.45   3 3.37   4 3.65   4 3.65   8 3.74
  21  0.074  0.250  0.959-  19 2.42  14 2.44   9 2.44   1 3.39   5 3.45   5 3.45   4 3.75
  22  0.322  0.750  0.041-  20 2.42  10 2.44  13 2.44   2 3.39   6 3.45   6 3.45   3 3.75
  23  0.113  0.750  0.477-  17 2.44  11 2.45  16 2.45   7 3.53   7 3.53   3 3.76
  24  0.283  0.250  0.523-  18 2.44  15 2.45  12 2.45   8 3.53   8 3.53   4 3.76

  LATTYP: Found a simple orthorhombic cell.
 ALAT       =     6.7778496742
 B/A-ratio  =     1.7117734747
 C/A-ratio  =     3.5423429602

  Lattice vectors:

 A1 = (   0.0000000000,   6.7778496742,   0.0000000000)
 A2 = (   0.0000000000,   0.0000000000, -11.6021432877)
 A3 = ( -24.0094680786,   0.0000000000,   0.0000000000)

Analysis of symmetry for initial positions (statically):
 Subroutine PRICEL returns:
 Original cell was already a primitive cell.

 Routine SETGRP: Setting up the symmetry group for a
 simple orthorhombic supercell.

 Subroutine GETGRP returns: Found  4 space group operations
 (whereof  1 operations were pure point group operations)
 out of a pool of  8 trial point group operations.

The static configuration has the point symmetry C_1 .
 The point group associated with its full space group is C_2h.

Analysis of symmetry for dynamics (positions and initial velocities):
 Subroutine PRICEL returns:
 Original cell was already a primitive cell.

[...]

The dynamic configuration has the point symmetry C_1 .
 The point group associated with its full space group is C_2h.

Analysis of constrained symmetry for selective dynamics:
 Subroutine PRICEL returns:
 Original cell was already a primitive cell.

 Routine SETGRP: Setting up the symmetry group for a
 simple orthorhombic supercell.

 Subroutine GETGRP returns: Found  4 space group operations
 (whereof  1 operations were pure point group operations)
 out of a pool of  8 trial point group operations.

The constrained configuration has the point symmetry C_1 .
 The point group associated with its full space group is C_2h.

 Subroutine INISYM returns: Found  4 space group operations
 (whereof  1 operations are pure point group operations),
 and found     1 'primitive' translations

 KPOINTS: k-density: 8.0

Automatic generation of k-mesh.
Space group operators:
 irot       det(A)        alpha          n_x          n_y          n_z        tau_x        tau_y        tau_z
    1     1.000000     0.000000     1.000000     0.000000     0.000000     0.000000     0.000000     0.000000
    2    -1.000000     0.000000     1.000000     0.000000     0.000000    -0.603928     0.000000     0.000000
    3     1.000000   180.000000     0.000000     1.000000     0.000000    -0.603928     0.500000     0.000000
    4    -1.000000   180.000000     0.000000     1.000000     0.000000     0.000000     0.500000     0.000000

 Subroutine IBZKPT returns following result:

 Found     15 irreducible k-points:

 Following reciprocal coordinates:
            Coordinates               Weight
  0.000000  0.000000  0.000000      1.000000
  0.000000  0.125000  0.000000      2.000000
  0.000000  0.250000  0.000000      2.000000
  0.000000  0.375000  0.000000      2.000000
  0.000000  0.500000  0.000000      1.000000
  0.000000  0.000000  0.200000      2.000000
  0.000000  0.125000  0.200000      4.000000
  0.000000  0.250000  0.200000      4.000000
  0.000000  0.375000  0.200000      4.000000
  0.000000  0.500000  0.200000      2.000000
  0.000000  0.000000  0.400000      2.000000
  0.000000  0.125000  0.400000      4.000000
  0.000000  0.250000  0.400000      4.000000
  0.000000  0.375000  0.400000      4.000000
  0.000000  0.500000  0.400000      2.000000

 Following cartesian coordinates:
            Coordinates               Weight
  0.000000  0.000000  0.000000      1.000000
  0.000000  0.018442  0.000000      2.000000
  0.000000  0.036885  0.000000      2.000000
  0.000000  0.055327  0.000000      2.000000
  0.000000  0.073770  0.000000      1.000000
  0.000000  0.000000  0.017238      2.000000
  0.000000  0.018442  0.017238      4.000000
  0.000000  0.036885  0.017238      4.000000
  0.000000  0.055327  0.017238      4.000000
  0.000000  0.073770  0.017238      2.000000
  0.000000  0.000000  0.034476      2.000000
  0.000000  0.018442  0.034476      4.000000
  0.000000  0.036885  0.034476      4.000000
  0.000000  0.055327  0.034476      4.000000
  0.000000  0.073770  0.034476      2.000000

 TETIRR: Found    108 inequivalent tetrahedra from      240

 SYSTEM =  unknown system
 POSCAR =  ba8 si16

 Startparameter for this run:
   NWRITE =      2    write-flag & timer
   PREC   = normal    normal or accurate (medium, high low for compatibility)
   ISTART =      0    job   : 0-new  1-cont  2-samecut
   ICHARG =      2    charge: 1-file 2-atom 10-const
   ISPIN  =      1    spin polarized calculation?
   LNONCOLLINEAR =      F non collinear calculations
   LSORBIT =      F    spin-orbit coupling
   INIWAV =      1    electr: 0-lowe 1-rand  2-diag
   LASPH  =      T    aspherical Exc in radial PAW
   METAGGA=      F    non-selfconsistent MetaGGA calc.

 Electronic Relaxation 1
   ENCUT  =  500.0 eV  36.75 Ry    6.06 a.u.  43.77 12.36 21.15*2*pi/ulx,y,z
   ENINI  =  500.0     initial cutoff
   ENAUG  =  351.2 eV  augmentation charge cutoff
   NELM   =    100;   NELMIN=  2; NELMDL= -5     # of ELM steps
   EDIFF  = 0.1E-05   stopping-criterion for ELM
   LREAL  =      T    real-space projection
   NLSPLINE    = F    spline interpolate recip. space projectors
   LCOMPAT=      F    compatible to vasp.4.4
   GGA_COMPAT  = T    GGA compatible to vasp.4.4-vasp.4.6
   LMAXPAW     = -100 max onsite density
   LMAXMIX     =    2 max onsite mixed and CHGCAR
   VOSKOWN=      0    Vosko Wilk Nusair interpolation
   ROPT   =   -0.00050  -0.00050
 Ionic relaxation
   EDIFFG = -.1E-02   stopping-criterion for IOM
   NSW    =      0    number of steps for IOM
   NBLOCK =      1;   KBLOCK =      1    inner block; outer block
   IBRION =     -1    ionic relax: 0-MD 1-quasi-New 2-CG
   NFREE  =      0    steps in history (QN), initial steepest desc. (CG)
   ISIF   =      2    stress and relaxation
   IWAVPR =     10    prediction:  0-non 1-charg 2-wave 3-comb
   ISYM   =      2    0-nonsym 1-usesym 2-fastsym
   LCORR  =      T    Harris-Foulkes like correction to forces

   POTIM  = 0.3000    time-step for ionic-motion
   TEIN   =    0.0    initial temperature
   TEBEG  =    0.0;   TEEND  =   0.0 temperature during run
   SMASS  =  -3.00    Nose mass-parameter (am)
   estimated Nose-frequenzy (Omega)   =  0.10E-29 period in steps =****** mass=  -0.132E-25a.u.
   SCALEE = 1.0000    scale energy and forces
   NPACO  =    256;   APACO  = 16.0  distance and # of slots for P.C.
[...]

 BZINTS: Fermi energy:  6.770064;144.000000 electrons
         Band energy:-475.751015;  BLOECHL correction: -0.037403

 eigenvalue-minimisations  :  2768
 total energy-change (2. order) : 0.1186476E+04  (-0.4764144E+04)
 number of electron     144.0000000 magnetization
 augmentation part      144.0000000 magnetization

 Free energy of the ion-electron system (eV)
  alpha Z        PSCENC =       170.45750602
  Ewald energy   TEWEN  =     10980.19662373
  -Hartree energ DENC   =    -17104.33031258
  -exchange      EXHF   =         0.00000000
  -V(xc)+E(xc)   XCENC  =        36.52901048
  PAW double counting   =      3696.57165193    -3386.34934349
  entropy T*S    EENTRO =         0.00000000
  eigenvalues    EBANDS =      -475.75101509
  atomic energy  EATOM  =      7269.15145414
  Solvation  Ediel_sol  =         0.00000000
  free energy    TOTEN  =      1186.47557515 eV

  energy without entropy =     1186.47557515  energy(sigma->0) =     1186.47557515

[...]

 eigenvalue-minimisations  :  3864
 total energy-change (2. order) :-0.1111486E+04  (-0.1084570E+04)
 number of electron     144.0000000 magnetization
 augmentation part      144.0000000 magnetization

[...]

 Broyden mixing:
  rms(total) = 0.91586E+00    rms(broyden)= 0.91586E+00
  rms(prec ) = 0.11830E+01
  weight for this iteration     100.00

[...]

 eigenvalues of (default mixing * dielectric matrix)
  average eigenvalue GAMMA=   1.5444
  1.5444

[...]

 eigenvalue-minimisations  :  2912
 total energy-change (2. order) : 0.3626360E-03  (-0.8824091E-04)
 number of electron     143.9999985 magnetization
 augmentation part      -17.6927924 magnetization

[...]

 Broyden mixing:
  rms(total) = 0.33403E-04    rms(broyden)= 0.33403E-04
  rms(prec ) = 0.46295E-04
  weight for this iteration     100.00

 eigenvalues of (default mixing * dielectric matrix)
  average eigenvalue GAMMA=   2.3295
  8.8719  7.0273  3.3547  3.3547  2.7016  1.9720  1.9720  1.9865  0.8888  0.8888
  1.2535  1.2535  1.2933  1.0994  1.0994  0.9574  0.9574  0.9987

[...]

--------------------------------------- Iteration      1(  24)  ---------------------------------------

 BZINTS: Fermi energy: -0.596046;144.000000 electrons
         Band energy:***********;  BLOECHL correction:  0.000000

 eigenvalue-minimisations  :  1920
 total energy-change (2. order) :-0.9560517E-06  (-0.2469396E-07)
 number of electron     143.9999985 magnetization
 augmentation part      -17.6929995 magnetization

 Free energy of the ion-electron system (eV)
  alpha Z        PSCENC =       170.45750602
  Ewald energy   TEWEN  =     10980.19662373
  -Hartree energ DENC   =    -17390.12206787
  -exchange      EXHF   =         0.00000000
  -V(xc)+E(xc)   XCENC  =        43.68071769
  PAW double counting   =      3819.08988374    -3524.10408178
  entropy T*S    EENTRO =         0.00000000
  eigenvalues    EBANDS =     -1457.50938561
  atomic energy  EATOM  =      7269.15145414
  Solvation  Ediel_sol  =         0.00000000
  free energy    TOTEN  =       -89.15934994 eV

  energy without entropy =      -89.15934994  energy(sigma->0) =      -89.15934994

 average (electrostatic) potential at core
  the test charge radii are     1.2192  0.9892
  (the norm of the test charge is              1.0000)
       1 -41.8047       2 -41.8047       3 -40.3966       4 -40.3967       5 -40.8461
       6 -40.8461       7 -40.9712       8 -40.9712       9 -88.9771      10 -88.9771
      11 -89.3550      12 -89.3550      13 -88.9771      14 -88.9771      15 -89.3550
      16 -89.3550      17 -89.4270      18 -89.4270      19 -88.9741      20 -88.9741
      21 -89.1364      22 -89.1364      23 -89.3595      24 -89.3595

 E-fermi :  -0.5960     XC(G=0):  -4.3172     alpha+bet : -3.8451

 k-point     1 :       0.0000    0.0000    0.0000
  band No.  band energies     occupation
      1     -29.6265      2.00000
      2     -29.6265      2.00000
      3     -28.7911      2.00000
      4     -28.7899      2.00000
      5     -28.6988      2.00000
      6     -28.6988      2.00000
      7     -28.2465      2.00000
      8     -28.2456      2.00000
      9     -14.9469      2.00000
     10     -14.9465      2.00000
     11     -14.8763      2.00000
     12     -14.8761      2.00000
     13     -14.8007      2.00000
     14     -14.8007      2.00000
     15     -14.1212      2.00000
     16     -14.1200      2.00000
     17     -14.1190      2.00000
     18     -14.1111      2.00000
     19     -14.0553      2.00000
     20     -14.0361      2.00000
     21     -14.0273      2.00000
     22     -13.9988      2.00000
     23     -13.9496      2.00000
     24     -13.9460      2.00000
     25     -13.9276      2.00000
     26     -13.9259      2.00000
     27     -13.5832      2.00000
     28     -13.5601      2.00000
     29     -13.5085      2.00000
     30     -13.5035      2.00000
     31     -13.5021      2.00000
     32     -13.4939      2.00000
     33     -11.0850      2.00000
     34     -11.0428      2.00000
     35     -10.7816      2.00000
     36     -10.7603      2.00000
     37      -6.4323      2.00000
     38      -6.4167      2.00000
     39      -6.2269      2.00000
     40      -6.2172      2.00000
     41      -6.2070      2.00000
     42      -6.1956      2.00000
     43      -6.0847      2.00000
     44      -6.0344      2.00000
     45      -5.9391      2.00000
     46      -5.7727      2.00000
     47      -5.7665      2.00000
     48      -5.7595      2.00000
     49      -3.5768      2.00000
     50      -3.1906      2.00000
     51      -2.6670      2.00000
     52      -2.6599      2.00000
     53      -2.4891      2.00000
     54      -2.2607      2.00000
     55      -2.0179      2.00000
     56      -1.9326      2.00000
     57      -1.8599      2.00000
     58      -1.8565      2.00000
     59      -1.8015      2.00000
     60      -1.7333      2.00000
[...]
     74       0.1678      0.00000
     75       0.5171      0.00000
     76       0.6152      0.00000
     77       0.6461      0.00000
     78       0.7145      0.00000
     79       0.7710      0.00000
     80       0.9961      0.00000
     81       1.0781      0.00000
     82       1.1175      0.00000
     83       1.2020      0.00000
     84       1.2799      0.00000
     85       1.2810      0.00000
     86       1.3307      0.00000
     87       1.3873      0.00000
     88       1.4573      0.00000

[...]

 k-point    15 :       0.0000    0.5000    0.4000
  band No.  band energies     occupation
      1     -29.6264      2.00000
      2     -29.6264      2.00000
      3     -28.7904      2.00000
      4     -28.7903      2.00000
      5     -28.6988      2.00000
      6     -28.6988      2.00000
      7     -28.2462      2.00000
      8     -28.2462      2.00000
      9     -14.9437      2.00000
     10     -14.9437      2.00000
     11     -14.8815      2.00000
     12     -14.8815      2.00000
     13     -14.8148      2.00000
     14     -14.8148      2.00000
     15     -14.1251      2.00000
     16     -14.1251      2.00000
     17     -14.1106      2.00000
     18     -14.1105      2.00000
     19     -14.0660      2.00000
     20     -14.0660      2.00000
     21     -14.0120      2.00000
     22     -14.0119      2.00000
     23     -13.9492      2.00000
     24     -13.9491      2.00000
     25     -13.9425      2.00000
     26     -13.9425      2.00000
     27     -13.5677      2.00000
     28     -13.5677      2.00000
     29     -13.5134      2.00000
     30     -13.5134      2.00000
     31     -13.4911      2.00000
     32     -13.4911      2.00000
     33     -11.0125      2.00000
     34     -11.0125      2.00000
     35     -10.7184      2.00000
     36     -10.7184      2.00000
     37      -6.5121      2.00000
     38      -6.5120      2.00000
     39      -6.2233      2.00000
     40      -6.2232      2.00000
     41      -6.1427      2.00000
     42      -6.1427      2.00000
     43      -5.9392      2.00000
     44      -5.9391      2.00000
     45      -5.9050      2.00000
     46      -5.9050      2.00000
     47      -5.7802      2.00000
     48      -5.7801      2.00000
     49      -2.7365      2.00000
     50      -2.7365      2.00000
     51      -2.6242      2.00000
     52      -2.6242      2.00000
     53      -2.2076      2.00000
     54      -2.2076      2.00000
     55      -2.1615      2.00000
     56      -2.1615      2.00000
     57      -2.0179      2.00000
     58      -2.0179      2.00000
     59      -1.7772      2.00000
     60      -1.7771      2.00000
[...]
     74       0.1482      0.00000
     75       0.3790      0.00000
     76       0.3790      0.00000
     77       0.6116      0.00000
     78       0.6116      0.00000
     79       0.7000      0.00000
     80       0.7001      0.00000
     81       0.8034      0.00000
     82       0.8034      0.00000
     83       1.0543      0.00000
     84       1.0543      0.00000
     85       1.2396      0.00000
     86       1.2396      0.00000
     87       1.3817      0.00000
     88       1.3818      0.00000

 soft charge-density along one line, spin component           1
         0         1         2         3         4         5         6         7         8         9
 total charge-density along one line

------------------------ aborting loop because EDIFF is reached ----------------------------------------

  FORCE on cell =-STRESS in cart. coord.  units (eV):
  Direction    XX          YY          ZZ          XY          YZ          ZX
  Alpha Z   170.45751   170.45751   170.45751
  Ewald  -18713.01386 15118.27611 14574.92132    -0.00002     0.00000   136.29080
  Hartree-15654.72520 16733.43681 16311.41891     0.00000    -0.00000   105.75108
  E(xc)    -460.64732  -461.82457  -461.86444    -0.00000     0.00000     0.03657
  Local   32953.35484-33287.06508-32314.17040     0.00001    -0.00000  -240.24424
  n-local   336.23099   336.00969   337.58820     0.06219    -0.21566    -1.13551
  augment  -167.47827  -167.92781  -167.91309    -0.00000    -0.00000     0.23991
  Kinetic  1523.22281  1544.03617  1535.39759    -0.05679    -0.84708    -0.70583
  Fock        0.00000     0.00000     0.00000     0.00000     0.00000     0.00000
  Total     -12.59849   -14.60117   -14.16441     0.00000     0.00000     0.23277
  in kB     -10.69096   -12.39040   -12.01978     0.00000     0.00000     0.19753

 VOLUME and BASIS-vectors are now :
  energy-cutoff  :      500.00
  volume of cell :     1888.05
      direct lattice vectors                 reciprocal lattice vectors
    24.009468079  0.000000000  0.000000000     0.041650236  0.000000000  0.000000000
     0.000000000  6.777849674  0.000000000     0.000000000  0.147539419  0.000000000
     0.000000000  0.000000000 11.602143288     0.000000000  0.000000000  0.086190971

  length of vectors
    24.009468079  6.777849674 11.602143288     0.041650236  0.147539419  0.086190971

 FORCES acting on ions
    electron-ion (+dipol)            ewald-force                    non-local-force                 convergence-correction
   0.761E+03 0.102E-04 0.434E+02   -.756E+03 0.989E-05 -.426E+02   -.405E+01 0.270E-18 -.769E+00   -.688E-03 -.397E-08 -.423E-04
   -.761E+03 -.631E-04 -.434E+02   0.756E+03 -.128E-04 0.426E+02   0.405E+01 0.301E-18 0.769E+00   0.688E-03 0.454E-08 0.423E-04
   0.884E+02 -.616E-04 -.384E+02   -.882E+02 -.173E-04 0.371E+02   0.253E+00 0.582E-18 0.128E+01   -.722E-04 0.686E-08 0.424E-03
   -.884E+02 0.106E-04 0.384E+02   0.882E+02 0.124E-04 -.371E+02   -.253E+00 0.551E-18 -.128E+01   0.722E-04 -.601E-08 -.424E-03
   0.609E+03 -.613E-04 -.483E+02   -.606E+03 -.162E-04 0.486E+02   -.166E+01 -.149E-18 -.316E+00   -.710E-03 0.564E-08 -.234E-03
   -.609E+03 0.900E-05 0.483E+02   0.606E+03 0.141E-04 -.486E+02   0.166E+01 0.369E-18 0.316E+00   0.710E-03 -.505E-08 0.234E-03
   0.348E+03 0.111E-04 -.104E+02   -.347E+03 0.129E-04 0.972E+01   -.300E+00 -.392E-17 0.635E+00   -.272E-03 -.570E-08 0.256E-03
   -.348E+03 -.623E-04 0.104E+02   0.347E+03 -.131E-04 -.972E+01   0.300E+00 -.467E-17 -.635E+00   0.272E-03 0.571E-08 -.256E-03
   0.269E+03 0.354E+02 -.458E+02   -.269E+03 -.371E+02 0.468E+02   -.115E+00 0.174E+01 -.917E+00   -.203E-03 -.834E-04 0.988E-04
   -.269E+03 -.354E+02 0.458E+02   0.269E+03 0.371E+02 -.468E+02   0.115E+00 -.174E+01 0.917E+00   0.203E-03 0.834E-04 -.988E-04
   0.114E+03 -.322E+02 0.203E+01   -.114E+03 0.336E+02 -.828E+00   0.979E-01 -.136E+01 -.120E+01   -.131E-03 0.502E-04 -.686E-04
   -.114E+03 0.322E+02 -.203E+01   0.114E+03 -.336E+02 0.828E+00   -.979E-01 0.136E+01 0.120E+01   0.131E-03 -.502E-04 0.686E-04
   -.269E+03 0.354E+02 0.458E+02   0.269E+03 -.371E+02 -.468E+02   0.115E+00 0.174E+01 0.917E+00   0.203E-03 -.834E-04 -.988E-04
   0.269E+03 -.354E+02 -.458E+02   -.269E+03 0.371E+02 0.468E+02   -.115E+00 -.174E+01 -.917E+00   -.203E-03 0.834E-04 0.988E-04
   -.114E+03 -.322E+02 -.203E+01   0.114E+03 0.336E+02 0.828E+00   -.979E-01 -.136E+01 0.120E+01   0.131E-03 0.502E-04 0.686E-04
   0.114E+03 0.322E+02 0.203E+01   -.114E+03 -.336E+02 -.828E+00   0.979E-01 0.136E+01 -.120E+01   -.131E-03 -.502E-04 -.686E-04
   0.323E+03 -.432E-05 0.460E+02   -.324E+03 -.609E-05 -.464E+02   0.149E+01 0.230E-18 0.434E+00   -.195E-03 0.163E-08 0.426E-04
   -.323E+03 0.617E-05 -.460E+02   0.324E+03 0.629E-05 0.464E+02   -.149E+01 -.126E-18 -.434E+00   0.195E-03 -.192E-08 -.426E-04
   0.335E+02 0.839E-05 -.971E+01   -.316E+02 0.736E-05 0.909E+01   -.152E+01 0.458E-19 0.615E+00   0.184E-05 -.260E-08 0.816E-04
   -.335E+02 -.287E-05 0.971E+01   0.316E+02 -.705E-05 -.909E+01   0.152E+01 -.452E-19 -.615E+00   -.183E-05 0.232E-08 -.816E-04
   0.233E+03 0.429E-05 0.136E+02   -.233E+03 0.800E-05 -.151E+02   -.413E-02 0.529E-18 0.147E+01   -.317E-03 -.229E-08 -.182E-03
   -.233E+03 -.562E-05 -.136E+02   0.233E+03 -.806E-05 0.151E+02   0.413E-02 -.499E-18 -.147E+01   0.317E-03 0.200E-08 0.182E-03
   0.150E+03 -.619E-05 0.567E+02   -.150E+03 -.742E-05 -.587E+02   -.611E+00 -.177E-17 0.196E+01   -.736E-04 0.209E-08 -.352E-05
   -.150E+03 0.369E-05 -.567E+02   0.150E+03 0.728E-05 0.587E+02   0.611E+00 0.387E-19 -.196E+01   0.736E-04 -.226E-08 0.353E-05
   0.109E-03 -.214E-03 0.778E-04   -.227E-12 0.179E-13 0.497E-13   -.444E-15 0.442E-15 -.222E-15   0.363E-07 0.340E-09 -.936E-08

 POSITION                                       TOTAL-FORCE (eV/Angst)
      0.13670      1.69446      8.16034         0.781242      0.000000      0.000146
      9.37277      5.08339      3.44180        -0.781242     -0.000000     -0.000146
      4.36803      5.08339      2.14487         0.437614      0.000000     -0.000403
      5.14143      1.69446      9.45727        -0.437614      0.000000      0.000403
      1.43529      5.08339     10.60538         0.668426     -0.000000      0.000162
      8.07418      1.69446      0.99676        -0.668426     -0.000000     -0.000162
      3.06944      1.69446      4.60040         0.516478     -0.000000      0.000585
      6.44002      5.08339      7.00174        -0.516478      0.000000     -0.000585
      1.75027      0.48862      1.64839        -0.113541     -0.000116      0.000042
      7.75920      6.28923      9.95375         0.113541      0.000116     -0.000042
      2.75446      6.30264      7.65389         0.334845     -0.000368     -0.000299
      6.75500      0.47521      3.94826        -0.334845      0.000368      0.000299
      7.75920      3.87754      9.95375         0.113541     -0.000116     -0.000042
      1.75027      2.90031      1.64839        -0.113541      0.000116      0.000042
      6.75500      2.91372      3.94826        -0.334845     -0.000368      0.000299
      2.75446      3.86413      7.65389         0.334845      0.000368     -0.000299
      0.74693      5.08339      6.96192        -0.259213      0.000000     -0.000090
      8.76254      1.69446      4.64022         0.259213     -0.000000      0.000090
      3.75780      1.69446      0.92411         0.378012     -0.000000      0.000109
      5.75166      5.08339     10.67803        -0.378012     -0.000000     -0.000109
      1.78112      1.69446     11.12625        -0.141035     -0.000000      0.000380
      7.72835      5.08339      0.47590         0.141035      0.000000     -0.000380
      2.72362      5.08339      5.52942        -0.100855      0.000000      0.000668
      6.78585      1.69446      6.07273         0.100855      0.000000     -0.000668
    total drift:                                0.000109     -0.000214      0.000078

  FREE ENERGIE OF THE ION-ELECTRON SYSTEM (eV)
  free  energy   TOTEN  =       -89.15934994 eV

  energy  without entropy=      -89.15934994  energy(sigma->0) =      -89.15934994

 writing wavefunctions
 BZINTS: Fermi energy: -0.596046;144.000000 electrons
         Band energy:***********;  BLOECHL correction:  0.000000