 vasp.5.4.4.18Apr17-6-g9f103f2a35 (build Nov 21 2017 15:30:27) complex

 executed on             LinuxIFC date 2021.02.08  13:00:29

 INCAR:
 POTCAR:   PAW_PBE Ba_sv 06Sep2000
 POTCAR:   PAW_PBE Si 05Jan2001

 POTCAR:   PAW_PBE Ba_sv 06Sep2000
   VRHFIN =Ba: 5s5p6s

   TITEL  = PAW_PBE Ba_sv 06Sep2000
   POMASS =  137.327; ZVAL   =   10.000    mass and valenz
   ENMAX  =  187.210; ENMIN  =  140.408 eV
   QCUT   =   -3.709; QGAM   =    7.419    optimization parameters

   Description
     l     E      TYP  RCUT    TYP  RCUT
     0   .000     23  2.800
     0   .000     23  2.800
     1   .000     23  2.700
     1  2.000     23  2.700
     2   .000     23  2.700
     2   .000     23  2.700

 POTCAR:   PAW_PBE Si 05Jan2001
   VRHFIN =Si: s2p2

   TITEL  = PAW_PBE Si 05Jan2001
   POMASS =   28.085; ZVAL   =    4.000    mass and valenz
   ENMAX  =  245.345; ENMIN  =  184.009 eV
   QCUT   =   -4.246; QGAM   =    8.493    optimization parameters

   Description
     l     E      TYP  RCUT    TYP  RCUT
     0   .000     23  1.900
     0   .000     23  1.900
     1   .000     23  1.900
     1   .000     23  1.900
     2   .000      7  1.900

 Optimization of the real space projectors (new method)

 maximal supplied QI-value         = 13.42
 optimisation between [QCUT,QGAM] = [ 11.40, 22.81] = [ 36.42,145.68] Ry
 Optimized for a Real-space Cutoff    1.56 Angstroem

   l    n(q)    QCUT    max X(q) W(low)/X(q) W(high)/X(q)  e(spline)
   0     11    11.404     7.198    0.14E-04    0.26E-04    0.99E-07
   0     11    11.404    15.603    0.29E-04    0.72E-04    0.44E-06
   1     10    11.404     3.746    0.20E-04    0.24E-04    0.43E-07
   1     10    11.404     4.362    0.22E-03    0.97E-04    0.22E-06
   2     10    11.404     5.782    0.83E-04    0.62E-05    0.27E-06
   2     10    11.404    65.505    0.42E-03    0.31E-04    0.12E-05
 Optimization of the real space projectors (new method)

 maximal supplied QI-value         = 19.84
 optimisation between [QCUT,QGAM] = [ 11.31, 22.82] = [ 35.82,145.81] Ry
 Optimized for a Real-space Cutoff    1.16 Angstroem

   l    n(q)    QCUT    max X(q) W(low)/X(q) W(high)/X(q)  e(spline)
   0      8    11.310     8.708    0.14E-04    0.11E-04    0.43E-08
   0      8    11.310   106.241    0.27E-03    0.30E-03    0.38E-07
   1      7    11.310     5.901    0.82E-05    0.48E-04    0.19E-07
   1      7    11.310    73.241    0.27E-03    0.27E-03    0.74E-07
 PAW_PBE Ba_sv 06Sep2000                :
 PAW_PBE Si 05Jan2001                   :

 POSCAR: ba8 si16
  positions in cartesian coordinates
 exchange correlation table for  LEXCH =        8
   RHO(1)=    0.500       N(1)  =     2000
   RHO(2)=  100.500       N(2)  =     4000

 ion  position               nearest neighbor table
   1  0.015  0.250  0.691-  24 3.40  18 3.40  13 3.45  10 3.45  16 3.45  11 3.45  21 3.60  17 3.63
                            17 3.63   5 4.41   5 4.41   7 4.42   4 4.71   4 4.71
   2  0.985  0.750  0.309-  23 3.40  17 3.40   9 3.45  14 3.45  12 3.45  15 3.45  22 3.60  18 3.63
                            18 3.63   6 4.41   6 4.41   8 4.42   3 4.71   3 4.71
   3  0.485  0.750  0.191-  22 3.40  20 3.40  12 3.45  15 3.45   9 3.45  14 3.45  23 3.60  19 3.63
                            19 3.63   7 4.41   7 4.41   5 4.42   2 4.71   2 4.71
   4  0.515  0.250  0.809-  21 3.40  19 3.40  16 3.45  11 3.45  13 3.45  10 3.45  24 3.60  20 3.63
                            20 3.63   8 4.41   8 4.41   6 4.42   1 4.71   1 4.71
   5  0.159  0.750  0.907-  10 3.46  13 3.46  21 3.48  21 3.48  11 3.50  16 3.50  22 3.54   9 3.55
                            14 3.55  17 3.71  20 3.82   1 4.41   1 4.41   3 4.42
   6  0.841  0.250  0.093-  14 3.46   9 3.46  22 3.48  22 3.48  15 3.50  12 3.50  21 3.54  13 3.55
                            10 3.55  18 3.71  19 3.82   2 4.41   2 4.41   4 4.42
   7  0.341  0.250  0.407-  15 3.46  12 3.46  23 3.48  23 3.48  14 3.50   9 3.50  24 3.54  16 3.55
                            11 3.55  19 3.71  18 3.82   3 4.41   3 4.41   1 4.42
   8  0.659  0.750  0.593-  11 3.46  16 3.46  24 3.48  24 3.48  10 3.50  13 3.50  23 3.54  12 3.55
                            15 3.55  20 3.71  17 3.82   4 4.41   4 4.41   2 4.42
   9  0.194  0.073  0.147-  14 2.41  21 2.41  19 2.42   2 3.45   3 3.45   6 3.46   7 3.50   5 3.55

  10  0.806  0.927  0.853-  13 2.41  22 2.41  20 2.42   1 3.45   4 3.45   5 3.46   8 3.50   6 3.55

[...]

  24  0.698  0.250  0.533-  15 2.41  12 2.41  18 2.45   1 3.40   8 3.48   8 3.48   7 3.54   4 3.60

  LATTYP: Found a simple orthorhombic cell.
 ALAT       =     6.7778496742
 B/A-ratio  =     1.3292516818
 C/A-ratio  =     1.7117734747

  Lattice vectors:

 A1 = (   0.0000000000,  -6.7778496742,   0.0000000000)
 A2 = (  -9.0094680786,   0.0000000000,   0.0000000000)
 A3 = (   0.0000000000,   0.0000000000, -11.6021432877)

Analysis of symmetry for initial positions (statically):
 Subroutine PRICEL returns:
 Original cell was already a primitive cell.

 Routine SETGRP: Setting up the symmetry group for a
 simple orthorhombic supercell.

 Subroutine GETGRP returns: Found  8 space group operations
 (whereof  2 operations were pure point group operations)
 out of a pool of  8 trial point group operations.

The static configuration has the point symmetry S_2 .
 The point group associated with its full space group is D_2h.

Analysis of symmetry for dynamics (positions and initial velocities):
 Subroutine PRICEL returns:
 Original cell was already a primitive cell.

 Routine SETGRP: Setting up the symmetry group for a
 simple orthorhombic supercell.

 Subroutine GETGRP returns: Found  8 space group operations
 (whereof  2 operations were pure point group operations)
 out of a pool of  8 trial point group operations.

The dynamic configuration has the point symmetry S_2 .
 The point group associated with its full space group is D_2h.

 Subroutine INISYM returns: Found  8 space group operations
 (whereof  2 operations are pure point group operations),
 and found     1 'primitive' translations

 KPOINTS: k-density: 6.0

Automatic generation of k-mesh.
Space group operators:
 irot       det(A)        alpha          n_x          n_y          n_z        tau_x        tau_y        tau_z
    1     1.000000     0.000000     1.000000     0.000000     0.000000     0.000000     0.000000     0.000000
    2    -1.000000     0.000000     1.000000     0.000000     0.000000     0.000000     0.000000     0.000000
    3     1.000000   180.000000     0.000000     0.000000     1.000000    -0.500000     0.000000    -0.500000
    4    -1.000000   180.000000     0.000000     0.000000     1.000000    -0.500000     0.000000    -0.500000
    5     1.000000   180.000000     1.000000     0.000000     0.000000    -0.500000    -0.500000    -0.500000
    6    -1.000000   180.000000     1.000000     0.000000     0.000000    -0.500000    -0.500000    -0.500000
    7     1.000000   180.000000     0.000000     1.000000     0.000000    -0.000000    -0.500000    -0.000000
    8    -1.000000   180.000000     0.000000     1.000000     0.000000     0.000000    -0.500000     0.000000

 Subroutine IBZKPT returns following result:

 Found     36 irreducible k-points:

 Following reciprocal coordinates:
            Coordinates               Weight
  0.000000  0.000000  0.000000      1.000000
  0.200000  0.000000  0.000000      2.000000
  0.400000  0.000000  0.000000      2.000000
  0.000000  0.166667  0.000000      2.000000
  0.200000  0.166667  0.000000      4.000000
  0.400000  0.166667  0.000000      4.000000
  0.000000  0.333333  0.000000      2.000000
  0.200000  0.333333  0.000000      4.000000
  0.400000  0.333333  0.000000      4.000000
  0.000000  0.500000  0.000000      1.000000
  0.200000  0.500000  0.000000      2.000000
  0.400000  0.500000  0.000000      2.000000
  0.000000  0.000000  0.250000      2.000000
  0.200000  0.000000  0.250000      4.000000
  0.400000  0.000000  0.250000      4.000000
  0.000000  0.166667  0.250000      4.000000
  0.200000  0.166667  0.250000      8.000000
  0.400000  0.166667  0.250000      8.000000
  0.000000  0.333333  0.250000      4.000000
  0.200000  0.333333  0.250000      8.000000
  0.400000  0.333333  0.250000      8.000000
  0.000000  0.500000  0.250000      2.000000
  0.200000  0.500000  0.250000      4.000000
  0.400000  0.500000  0.250000      4.000000
  0.000000  0.000000  0.500000      1.000000
  0.200000  0.000000  0.500000      2.000000
  0.400000  0.000000  0.500000      2.000000
  0.000000  0.166667  0.500000      2.000000
  0.200000  0.166667  0.500000      4.000000
  0.400000  0.166667  0.500000      4.000000
  0.000000  0.333333  0.500000      2.000000
  0.200000  0.333333  0.500000      4.000000
  0.400000  0.333333  0.500000      4.000000
  0.000000  0.500000  0.500000      1.000000
  0.200000  0.500000  0.500000      2.000000
  0.400000  0.500000  0.500000      2.000000

 Following cartesian coordinates:
            Coordinates               Weight
  0.000000  0.000000  0.000000      1.000000
  0.022199  0.000000  0.000000      2.000000
  0.044398  0.000000  0.000000      2.000000
  0.000000  0.024590  0.000000      2.000000
  0.022199  0.024590  0.000000      4.000000
  0.044398  0.024590  0.000000      4.000000
  0.000000  0.049180  0.000000      2.000000
  0.022199  0.049180  0.000000      4.000000
  0.044398  0.049180  0.000000      4.000000
  0.000000  0.073770  0.000000      1.000000
  0.022199  0.073770  0.000000      2.000000
  0.044398  0.073770  0.000000      2.000000
  0.000000  0.000000  0.021548      2.000000
  0.022199  0.000000  0.021548      4.000000
  0.044398  0.000000  0.021548      4.000000
  0.000000  0.024590  0.021548      4.000000
  0.022199  0.024590  0.021548      8.000000
  0.044398  0.024590  0.021548      8.000000
  0.000000  0.049180  0.021548      4.000000
  0.022199  0.049180  0.021548      8.000000
  0.044398  0.049180  0.021548      8.000000
  0.000000  0.073770  0.021548      2.000000
  0.022199  0.073770  0.021548      4.000000
  0.044398  0.073770  0.021548      4.000000
  0.000000  0.000000  0.043095      1.000000
  0.022199  0.000000  0.043095      2.000000
  0.044398  0.000000  0.043095      2.000000
  0.000000  0.024590  0.043095      2.000000
  0.022199  0.024590  0.043095      4.000000
  0.044398  0.024590  0.043095      4.000000
  0.000000  0.049180  0.043095      2.000000
  0.022199  0.049180  0.043095      4.000000
  0.044398  0.049180  0.043095      4.000000
  0.000000  0.073770  0.043095      1.000000
  0.022199  0.073770  0.043095      2.000000
  0.044398  0.073770  0.043095      2.000000

 TETIRR: Found    360 inequivalent tetrahedra from      720

 SYSTEM =  unknown system
 POSCAR =  ba8 si16

 Startparameter for this run:
   NWRITE =      2    write-flag & timer
   PREC   = normal    normal or accurate (medium, high low for compatibility)
   ISTART =      0    job   : 0-new  1-cont  2-samecut
   ICHARG =      2    charge: 1-file 2-atom 10-const
   ISPIN  =      1    spin polarized calculation?
   LNONCOLLINEAR =      F non collinear calculations
   LSORBIT =      F    spin-orbit coupling
   INIWAV =      1    electr: 0-lowe 1-rand  2-diag
   LASPH  =      F    aspherical Exc in radial PAW
[...]

  energy  without entropy=     -114.50805818  energy(sigma->0) =     -114.50805818

[...]

         DFTD3 V3.0 Rev 1
 Edisp (eV)   -3.81422

[...]

 d Force =-0.2959241E-02[-0.116E-01, 0.568E-02]  d Energy = 0.4005301E-01-0.430E-01
 d Force =-0.2353701E+01[-0.239E+01,-0.232E+01]  d Ewald  = 0.5535337E+02-0.577E+02

 Steepest descent step on ions:
 trial-energy change:   -0.040053  1 .order   -0.038778   -0.125945    0.048389
  (g-gl).g = 0.126E+00      g.g   = 0.126E+00  gl.gl    = 0.000E+00
 g(Force)  = 0.573E-02   g(Stress)= 0.120E+00 ortho     = 0.000E+00
 gamma     =   0.00000
 trial     =   1.00000
 opt step  =   0.73106  (harmonic =   0.72243) maximal distance =0.00474384
 next E    =  -114.554593   (d E  =  -0.04654)

[...]

 d Force = 0.2489809E-02[ 0.182E-02, 0.316E-02]  d Energy = 0.6564919E-02-0.408E-02
 d Force = 0.6477479E+00[ 0.645E+00, 0.651E+00]  d Ewald  =-0.1497584E+02 0.156E+02

[...]

 d Force = 0.1131974E-01[ 0.483E-02, 0.178E-01]  d Energy = 0.1212520E-01-0.805E-03
 d Force = 0.4305350E+01[ 0.425E+01, 0.436E+01]  d Ewald  = 0.1619347E+02-0.119E+02

 Conjugate gradient step on ions:
 trial-energy change:   -0.012125  1 .order   -0.012251   -0.019178   -0.005325
  (g-gl).g = 0.209E-01      g.g   = 0.204E-01  gl.gl    = 0.126E+00
 g(Force)  = 0.200E-01   g(Stress)= 0.374E-03 ortho     =-0.512E-03
 gamma     =   0.16567
 trial     =   0.94621
 opt step  =   1.34045  (harmonic =   1.30992) maximal distance =0.01035989
 next E    =  -114.567901   (d E  =  -0.01323)

[...]

 d Force = 0.8584010E-03[-0.297E-03, 0.201E-02]  d Energy = 0.9923058E-03-0.134E-03
 d Force = 0.1763119E+01[ 0.175E+01, 0.177E+01]  d Ewald  = 0.6730643E+01-0.497E+01

[...]

 d Force = 0.1772306E-04[ 0.245E-05, 0.330E-04]  d Energy = 0.1504700E-04 0.268E-05
 d Force =-0.1946290E+00[-0.195E+00,-0.195E+00]  d Ewald  =-0.7455384E+00 0.551E+00

[...]

 Conjugate gradient step on ions:
 trial-energy change:   -0.000436  1 .order   -0.000429   -0.000602   -0.000255
  (g-gl).g = 0.543E-03      g.g   = 0.590E-03  gl.gl    = 0.204E-01
 g(Force)  = 0.354E-03   g(Stress)= 0.236E-03 ortho     = 0.876E-04
 gamma     =   0.02670
 trial     =   1.01632
 opt step  =   1.63480  (harmonic =   1.76403) maximal distance =0.00165086
 next E    =  -114.568324   (d E  =  -0.00052)

[...]

 d Force = 0.8715864E-04[-0.181E-03, 0.355E-03]  d Energy = 0.5899074E-04 0.282E-04
 d Force =-0.3734553E+00[-0.378E+00,-0.369E+00]  d Ewald  =-0.4505649E+00 0.771E-01

[...]

 d Force = 0.3612401E-04[ 0.167E-04, 0.556E-04]  d Energy = 0.3135374E-04 0.477E-05
 d Force = 0.1157734E+00[ 0.115E+00, 0.116E+00]  d Ewald  = 0.1395235E+00-0.238E-01

[...]

 Conjugate gradient step on ions:
 trial-energy change:   -0.000189  1 .order   -0.000203   -0.000358   -0.000049
  (g-gl).g = 0.310E-03      g.g   = 0.263E-03  gl.gl    = 0.344E-03
 g(Force)  = 0.208E-03   g(Stress)= 0.551E-04 ortho     =-0.157E-04
 gamma     =   0.90130
 trial     =   1.43487
 opt step  =   1.78194  (harmonic =   1.66006) maximal distance =0.00239187
 next E    =  -114.569246   (d E  =  -0.00019)

[...]

 d Force = 0.2751580E-04[ 0.277E-04, 0.273E-04]  d Energy = 0.7490433E-05 0.200E-04
 d Force = 0.3469521E-01[ 0.346E-01, 0.347E-01]  d Ewald  =-0.3876949E+00 0.422E+00

[...]

 Conjugate gradient step on ions:
 trial-energy change:   -0.000206  1 .order   -0.000200   -0.000225   -0.000176
  (g-gl).g = 0.361E-03      g.g   = 0.351E-03  gl.gl    = 0.263E-03
 g(Force)  = 0.259E-03   g(Stress)= 0.921E-04 ortho     = 0.912E-05
 gamma     =   1.37205
 trial     =   0.61715
 opt step  =   1.45852  (harmonic =   2.84494) maximal distance =0.00353114
 next E    =  -114.569588   (d E  =  -0.00034)

 real space projection operators:
  max/ min on nodes  :       1155.97       1065.53

[...]

 eigenvalue-minimisations  :  7584
 total energy-change (2. order) :-0.5552350E-04  (-0.8668718E-04)
 number of electron     144.0000007 magnetization
 augmentation part      -17.6449789 magnetization

[...]

 Broyden mixing:
  rms(total) = 0.29356E-03    rms(broyden)= 0.29355E-03
  rms(prec ) = 0.38394E-03
  weight for this iteration     100.00

 eigenvalues of (default mixing * dielectric matrix)
  average eigenvalue GAMMA=   1.5246
  2.4062  1.0837  1.0837

[...]

--------------------------------------- Iteration     16(   5)  ---------------------------------------

 BZINTS: Fermi energy:  3.615878;144.000000 electrons
         Band energy:-828.278061;  BLOECHL correction:  0.000000

 eigenvalue-minimisations  :  4024
 total energy-change (2. order) : 0.2563311E-06  (-0.7276191E-07)
 number of electron     144.0000007 magnetization
 augmentation part      -17.6448977 magnetization

 Free energy of the ion-electron system (eV)
  alpha Z        PSCENC =       466.47303954
  Ewald energy   TEWEN  =     -6434.51034119
  -Hartree energ DENC   =      -905.71124144
  -exchange      EXHF   =         0.00000000
  -V(xc)+E(xc)   XCENC  =        54.69864437
  PAW double counting   =      3864.79857211    -3579.09017676
  entropy T*S    EENTRO =         0.00000000
  eigenvalues    EBANDS =      -828.27806065
  atomic energy  EATOM  =      7250.85976021
  Solvation  Ediel_sol  =         0.00000000
  free energy    TOTEN  =      -110.75980382 eV

  energy without entropy =     -110.75980382  energy(sigma->0) =     -110.75980382

 average (electrostatic) potential at core
  the test charge radii are     1.2192  0.9892
  (the norm of the test charge is              1.0000)
       1 -36.1159       2 -36.1159       3 -36.1159       4 -36.1159       5 -36.2127
       6 -36.2127       7 -36.2127       8 -36.2127       9 -85.0332      10 -85.0332
      11 -85.0332      12 -85.0332      13 -85.0332      14 -85.0332      15 -85.0332
      16 -85.0332      17 -85.0943      18 -85.0943      19 -85.0943      20 -85.0943
      21 -84.9968      22 -84.9968      23 -84.9968      24 -84.9968

 E-fermi :   3.6159     XC(G=0):  -8.9165     alpha+bet :-10.5226

[...]

 k-point    36 :       0.4000    0.5000    0.5000
  band No.  band energies     occupation
      1     -23.8833      2.00000
      2     -23.8833      2.00000
      3     -23.8831      2.00000
      4     -23.8831      2.00000
      5     -23.8134      2.00000
      6     -23.8134      2.00000
      7     -23.8107      2.00000
      8     -23.8107      2.00000
      9      -9.4929      2.00000
     10      -9.4929      2.00000
     11      -9.4719      2.00000
     12      -9.4719      2.00000
     13      -9.4072      2.00000
     14      -9.4072      2.00000
     15      -9.3910      2.00000
     16      -9.3910      2.00000
     17      -9.2722      2.00000
     18      -9.2722      2.00000
     19      -9.2280      2.00000
     20      -9.2280      2.00000
     21      -9.1691      2.00000
     22      -9.1691      2.00000
     23      -9.1591      2.00000
     24      -9.1591      2.00000
     25      -9.1155      2.00000
     26      -9.1155      2.00000
     27      -9.1052      2.00000
     28      -9.1052      2.00000
     29      -9.0811      2.00000
     30      -9.0811      2.00000
     31      -9.0795      2.00000
     32      -9.0794      2.00000
     33      -6.9438      2.00000
     34      -6.9438      2.00000
     35      -6.9423      2.00000
     36      -6.9423      2.00000
     37      -2.5003      2.00000
     38      -2.5003      2.00000
     39      -2.3997      2.00000
     40      -2.3997      2.00000
     41      -2.0880      2.00000
     42      -2.0880      2.00000
     43      -2.0532      2.00000
     44      -2.0532      2.00000
     45      -1.9448      2.00000
     46      -1.9448      2.00000
     47      -1.8809      2.00000
     48      -1.8809      2.00000
     49       1.1850      2.00000
     50       1.1850      2.00000
     51       1.2684      2.00000
     52       1.2684      2.00000
     53       1.7055      2.00000
     54       1.7055      2.00000
     55       1.8590      2.00000
     56       1.8590      2.00000
     57       2.0562      2.00000
     58       2.0562      2.00000
     59       2.1412      2.00000
     60       2.1412      2.00000
[...]
     74       4.4969      0.00000
     75       4.6753      0.00000
     76       4.6753      0.00000
     77       4.8410      0.00000
     78       4.8410      0.00000
     79       5.1113      0.00000
     80       5.1113      0.00000
     81       5.5708      0.00000
     82       5.5708      0.00000
     83       5.7374      0.00000
     84       5.7374      0.00000
     85       6.0488      0.00000
     86       6.0488      0.00000
     87       6.1655      0.00000
     88       6.1655      0.00000

 soft charge-density along one line, spin component           1
         0         1         2         3         4         5         6         7         8         9
 total charge-density along one line

------------------------ aborting loop because EDIFF is reached ----------------------------------------

         DFTD3 V3.0 Rev 1
 Edisp (eV)   -3.80980

 E6    (eV) :    -1.5908
 E8    (eV) :    -2.2190
 % E8        : 58.25

  FORCE on cell =-STRESS in cart. coord.  units (eV):
  Direction    XX          YY          ZZ          XY          YZ          ZX
  Alpha Z   466.47304   466.47304   466.47304
  Ewald   -2164.51011 -2139.50328 -2130.51532    -0.00000    -0.00000    -0.00014
  Hartree   290.51348   307.19659   307.99838     0.00000    -0.00000     0.00002
  E(xc)    -465.14183  -465.10935  -465.03739    -0.00000    -0.00000    -0.00000
  Local     143.69504   108.35971    98.97380     0.00000     0.00000     0.00009
  n-local   345.20190   342.58384   343.27244    -0.10018    -0.04687    -0.14807
  augment  -169.57342  -168.61508  -168.82504    -0.00000     0.00000    -0.00000
  Kinetic  1557.41792  1553.00443  1551.85818     0.62526    -0.75972    -0.03259
  Fock        0.00000     0.00000     0.00000     0.00000     0.00000     0.00000
  vdW        -4.24112    -4.38864    -4.20335     0.00000    -0.00000    -0.00000
  Total      -0.16511     0.00126    -0.00527     0.00000     0.00000     0.00000
  in kB      -0.38342     0.00292    -0.01224     0.00000     0.00000     0.00000

 VOLUME and BASIS-vectors are now :
  energy-cutoff  :      500.00
  volume of cell :      689.93
      direct lattice vectors                 reciprocal lattice vectors
     8.947758918 -0.000000000  0.000000000     0.111759828  0.000000000  0.000000000
    -0.000000000  6.709403473  0.000000000     0.000000000  0.149044547  0.000000000
     0.000000000  0.000000000 11.492224308     0.000000000  0.000000000  0.087015357

  length of vectors
     8.947758918  6.709403473 11.492224308     0.111759828  0.149044547  0.087015357

 FORCES acting on ions
    electron-ion (+dipol)            ewald-force                    non-local-force                 convergence-correction
   0.283E+01 0.803E-04 0.259E+01   -.317E+01 0.140E-04 -.294E+01   0.333E+00 0.985E-18 0.341E+00   0.185E-03 -.952E-09 -.118E-03
   -.283E+01 0.891E-05 -.259E+01   0.317E+01 -.200E-04 0.294E+01   -.333E+00 -.898E-18 -.341E+00   -.185E-03 -.574E-09 0.118E-03
   -.283E+01 0.467E-05 0.259E+01   0.317E+01 -.200E-04 -.294E+01   -.333E+00 -.118E-17 0.341E+00   -.185E-03 -.654E-09 -.118E-03
   0.283E+01 0.761E-04 -.259E+01   -.317E+01 0.140E-04 0.294E+01   0.333E+00 0.942E-18 -.341E+00   0.185E-03 -.103E-08 0.118E-03
   -.234E+02 0.748E-05 -.574E+01   0.226E+02 -.179E-04 0.580E+01   0.864E+00 0.860E-18 -.554E-01   0.265E-03 0.793E-09 -.662E-03
   0.234E+02 0.787E-04 0.574E+01   -.226E+02 0.172E-04 -.580E+01   -.864E+00 -.130E-17 0.554E-01   -.265E-03 0.726E-09 0.662E-03
   0.234E+02 0.766E-04 -.574E+01   -.226E+02 0.172E-04 0.580E+01   -.864E+00 -.151E-17 -.554E-01   -.265E-03 0.408E-09 -.662E-03
   -.234E+02 0.535E-05 0.574E+01   0.226E+02 -.179E-04 -.580E+01   0.864E+00 0.154E-17 0.554E-01   0.265E-03 0.474E-09 0.662E-03
   0.105E+02 0.318E+02 -.176E+02   -.109E+02 -.329E+02 0.183E+02   0.345E+00 0.107E+01 -.660E+00   -.628E-04 0.257E-03 -.138E-03
   -.105E+02 -.318E+02 0.176E+02   0.109E+02 0.329E+02 -.183E+02   -.345E+00 -.107E+01 0.660E+00   0.628E-04 -.257E-03 0.138E-03
   -.105E+02 -.318E+02 -.176E+02   0.109E+02 0.329E+02 0.183E+02   -.345E+00 -.107E+01 -.660E+00   0.628E-04 -.257E-03 -.138E-03
   0.105E+02 0.318E+02 0.176E+02   -.109E+02 -.329E+02 -.183E+02   0.345E+00 0.107E+01 0.660E+00   -.628E-04 0.257E-03 0.138E-03
   -.105E+02 0.318E+02 0.176E+02   0.109E+02 -.329E+02 -.183E+02   -.345E+00 0.107E+01 0.660E+00   0.628E-04 0.257E-03 0.138E-03
   0.105E+02 -.318E+02 -.176E+02   -.109E+02 0.329E+02 0.183E+02   0.345E+00 -.107E+01 -.660E+00   -.628E-04 -.257E-03 -.138E-03
   0.105E+02 -.318E+02 0.176E+02   -.109E+02 0.329E+02 -.183E+02   0.345E+00 -.107E+01 0.660E+00   -.628E-04 -.257E-03 0.138E-03
   -.105E+02 0.318E+02 -.176E+02   0.109E+02 -.329E+02 0.183E+02   -.345E+00 0.107E+01 -.660E+00   0.628E-04 0.257E-03 -.138E-03
   0.451E+02 -.121E-04 0.921E+00   -.468E+02 -.780E-05 -.172E+01   0.165E+01 -.107E-16 0.812E+00   0.947E-04 0.146E-09 -.181E-03
   -.451E+02 -.835E-06 -.921E+00   0.468E+02 0.809E-05 0.172E+01   -.165E+01 -.767E-17 -.812E+00   -.947E-04 -.930E-10 0.181E-03
   -.451E+02 0.707E-05 0.921E+00   0.468E+02 0.809E-05 -.172E+01   -.165E+01 -.478E-17 0.812E+00   -.947E-04 -.340E-09 -.181E-03
   0.451E+02 -.418E-05 -.921E+00   -.468E+02 -.780E-05 0.172E+01   0.165E+01 -.968E-17 -.812E+00   0.947E-04 -.102E-09 0.181E-03
   0.781E+01 -.435E-05 0.362E+02   -.769E+01 0.871E-05 -.375E+02   -.138E+00 0.636E-18 0.131E+01   0.145E-03 -.524E-09 0.262E-03
   -.781E+01 -.149E-04 -.362E+02   0.769E+01 -.908E-05 0.375E+02   0.138E+00 -.624E-19 -.131E+01   -.145E-03 -.611E-09 -.262E-03
   -.781E+01 -.905E-06 0.362E+02   0.769E+01 -.908E-05 -.375E+02   0.138E+00 0.407E-17 0.131E+01   -.145E-03 -.938E-09 0.262E-03
   0.781E+01 0.965E-05 -.362E+02   -.769E+01 0.871E-05 0.375E+02   -.138E+00 0.348E-17 -.131E+01   0.145E-03 -.851E-09 -.262E-03
   -.270E-03 0.392E-03 0.591E-04   -.533E-14 0.213E-13 -.142E-13   0.000E+00 -.469E-15 -.222E-15   -.365E-08 -.561E-08 0.174E-08

 POSITION                                       TOTAL-FORCE (eV/Angst)
      0.13617      1.67735      7.95339         0.001952      0.000000     -0.005711
      8.81159      5.03205      3.53884        -0.001952      0.000000      0.005711
      4.33771      5.03205      2.20727        -0.001952      0.000000     -0.005711
      4.61005      1.67735      9.28495         0.001952      0.000000      0.005711
      1.42241      5.03205     10.41297         0.002127      0.000000     -0.005312
      7.52535      1.67735      1.07925        -0.002127      0.000000      0.005312
      3.05147      1.67735      4.66686        -0.002127      0.000000     -0.005312
      5.89629      5.03205      6.82536         0.002127      0.000000      0.005312
      1.72989      0.47833      1.67942         0.002106      0.000452     -0.002465
      7.21787      6.23107      9.81280        -0.002106     -0.000452      0.002465
      2.74399      6.23107      7.42554        -0.002106     -0.000452     -0.002465
      6.20377      0.47833      4.06669         0.002106      0.000452      0.002465
      7.21787      3.83303      9.81280        -0.002106      0.000452      0.002465
      1.72989      2.87637      1.67942         0.002106     -0.000452     -0.002465
      6.20377      2.87637      4.06669         0.002106     -0.000452      0.002465
      2.74399      3.83303      7.42554        -0.002106      0.000452     -0.002465
      0.74764      5.03205      6.79200         0.008579      0.000000      0.001282
      8.20012      1.67735      4.70023        -0.008579      0.000000     -0.001282
      3.72624      1.67735      1.04588        -0.008579      0.000000      0.001282
      5.22152      5.03205     10.44634         0.008579      0.000000     -0.001282
      1.76391      1.67735     11.09421        -0.002644      0.000000     -0.007125
      7.18385      5.03205      0.39801         0.002644      0.000000      0.007125
      2.70997      5.03205      5.34810         0.002644      0.000000     -0.007125
      6.23779      1.67735      6.14412        -0.002644      0.000000      0.007125
    total drift:                               -0.000270      0.000392      0.000059

  FREE ENERGIE OF THE ION-ELECTRON SYSTEM (eV)
  free  energy   TOTEN  =      -114.56960812 eV

  energy  without entropy=     -114.56960812  energy(sigma->0) =     -114.56960812

 d Force = 0.1674313E-03[ 0.838E-04, 0.251E-03]  d Energy = 0.1548118E-03 0.126E-04
 d Force =-0.2586337E+00[-0.259E+00,-0.258E+00]  d Ewald  =-0.3710285E+00 0.112E+00

 reached required accuracy - stopping structural energy minimisation
 writing wavefunctions
 BZINTS: Fermi energy:  3.615878;144.000000 electrons
         Band energy:-828.278061;  BLOECHL correction:  0.000000