 vasp.5.4.4.18Apr17-6-g9f103f2a35 (build Nov 21 2017 15:30:27) complex

 executed on             LinuxIFC date 2020.12.16  16:16:20

 INCAR:
 POTCAR:   PAW_PBE Ba_sv 06Sep2000
 POTCAR:   PAW_PBE Ge 05Jan2001

 POTCAR:   PAW_PBE Ba_sv 06Sep2000
   VRHFIN =Ba: 5s5p6s

   TITEL  = PAW_PBE Ba_sv 06Sep2000
   POMASS =  137.327; ZVAL   =   10.000    mass and valenz
   ENMAX  =  187.210; ENMIN  =  140.408 eV
   QCUT   =   -3.709; QGAM   =    7.419    optimization parameters

   Description
     l     E      TYP  RCUT    TYP  RCUT
     0   .000     23  2.800
     0   .000     23  2.800
     1   .000     23  2.700
     1  2.000     23  2.700
     2   .000     23  2.700
     2   .000     23  2.700

 POTCAR:   PAW_PBE Ge 05Jan2001
   VRHFIN =Ge: s2p2

   TITEL  = PAW_PBE Ge 05Jan2001
   POMASS =   72.610; ZVAL   =    4.000    mass and valenz
   ENMAX  =  173.807; ENMIN  =  130.355 eV
   QCUT   =   -3.574; QGAM   =    7.148    optimization parameters

   Description
     l     E      TYP  RCUT    TYP  RCUT
     0   .000     23  2.300
     0   .000     23  2.300
     1   .000     23  2.300
     1   .000     23  2.300
     2   .000     23  2.300
     3  -.100      7  2.300

 Optimization of the real space projectors (new method)

 maximal supplied QI-value         = 13.42
 optimisation between [QCUT,QGAM] = [ 11.40, 22.81] = [ 36.42,145.68] Ry
 Optimized for a Real-space Cutoff    1.56 Angstroem

   l    n(q)    QCUT    max X(q) W(low)/X(q) W(high)/X(q)  e(spline)
   0     11    11.404     7.198    0.14E-04    0.26E-04    0.99E-07
   0     11    11.404    15.603    0.29E-04    0.72E-04    0.44E-06
   1     10    11.404     3.746    0.20E-04    0.24E-04    0.43E-07
   1     10    11.404     4.362    0.22E-03    0.97E-04    0.22E-06
   2     10    11.404     5.782    0.83E-04    0.62E-05    0.27E-06
   2     10    11.404    65.505    0.42E-03    0.31E-04    0.12E-05
 Optimization of the real space projectors (new method)

 maximal supplied QI-value         = 16.25
 optimisation between [QCUT,QGAM] = [ 11.38, 22.75] = [ 36.24,144.96] Ry
 Optimized for a Real-space Cutoff    1.27 Angstroem

   l    n(q)    QCUT    max X(q) W(low)/X(q) W(high)/X(q)  e(spline)
   0      9    11.376     8.651    0.25E-04    0.12E-04    0.13E-07
   0      9    11.376    33.192    0.14E-03    0.18E-03    0.86E-07
   1      8    11.376     5.899    0.25E-04    0.48E-04    0.38E-07
   1      8    11.376    27.289    0.31E-03    0.36E-04    0.16E-06
   2      8    11.376     4.673    0.15E-03    0.22E-03    0.50E-07
 PAW_PBE Ba_sv 06Sep2000                :
 PAW_PBE Ge 05Jan2001                   :

 POSCAR: ba8 ge16
  positions in cartesian coordinates
 exchange correlation table for  LEXCH =        8
   RHO(1)=    0.500       N(1)  =     2000
   RHO(2)=  100.500       N(2)  =     4000

 ion  position               nearest neighbor table
   1  0.015  0.250  0.691-  24 3.40  18 3.40  13 3.45  10 3.45  16 3.45  11 3.45  21 3.60  17 3.63
                            17 3.63   5 4.41   5 4.41   7 4.42   4 4.71   4 4.71
   2  0.985  0.750  0.309-  23 3.40  17 3.40   9 3.45  14 3.45  12 3.45  15 3.45  22 3.60  18 3.63
                            18 3.63   6 4.41   6 4.41   8 4.42   3 4.71   3 4.71
   3  0.485  0.750  0.191-  22 3.40  20 3.40  12 3.45  15 3.45   9 3.45  14 3.45  23 3.60  19 3.63
                            19 3.63   7 4.41   7 4.41   5 4.42   2 4.71   2 4.71
   4  0.515  0.250  0.809-  21 3.40  19 3.40  16 3.45  11 3.45  13 3.45  10 3.45  24 3.60  20 3.63
                            20 3.63   8 4.41   8 4.41   6 4.42   1 4.71   1 4.71
   5  0.159  0.750  0.907-  10 3.46  13 3.46  21 3.48  21 3.48  11 3.50  16 3.50  22 3.54   9 3.55
                            14 3.55  17 3.71  20 3.82   1 4.41   1 4.41   3 4.42
   6  0.841  0.250  0.093-  14 3.46   9 3.46  22 3.48  22 3.48  15 3.50  12 3.50  21 3.54  13 3.55
                            10 3.55  18 3.71  19 3.82   2 4.41   2 4.41   4 4.42
   7  0.341  0.250  0.407-  15 3.46  12 3.46  23 3.48  23 3.48  14 3.50   9 3.50  24 3.54  16 3.55
                            11 3.55  19 3.71  18 3.82   3 4.41   3 4.41   1 4.42
   8  0.659  0.750  0.593-  11 3.46  16 3.46  24 3.48  24 3.48  10 3.50  13 3.50  23 3.54  12 3.55
                            15 3.55  20 3.71  17 3.82   4 4.41   4 4.41   2 4.42
   9  0.194  0.073  0.147-  14 2.41  21 2.41  19 2.42   2 3.45   3 3.45   6 3.46   7 3.50   5 3.55

  10  0.806  0.927  0.853-  13 2.41  22 2.41  20 2.42   1 3.45   4 3.45   5 3.46   8 3.50   6 3.55

[...]

  24  0.698  0.250  0.533-  15 2.41  12 2.41  18 2.45   1 3.40   8 3.48   8 3.48   7 3.54   4 3.60

  LATTYP: Found a simple orthorhombic cell.
 ALAT       =     6.7778496742
 B/A-ratio  =     1.3292516818
 C/A-ratio  =     1.7117734747

  Lattice vectors:

 A1 = (   0.0000000000,  -6.7778496742,   0.0000000000)
 A2 = (  -9.0094680786,   0.0000000000,   0.0000000000)
 A3 = (   0.0000000000,   0.0000000000, -11.6021432877)

Analysis of symmetry for initial positions (statically):
 Subroutine PRICEL returns:
 Original cell was already a primitive cell.

 Routine SETGRP: Setting up the symmetry group for a
 simple orthorhombic supercell.

 Subroutine GETGRP returns: Found  8 space group operations
 (whereof  2 operations were pure point group operations)
 out of a pool of  8 trial point group operations.

The static configuration has the point symmetry S_2 .
 The point group associated with its full space group is D_2h.

Analysis of symmetry for dynamics (positions and initial velocities):
 Subroutine PRICEL returns:
 Original cell was already a primitive cell.

 Routine SETGRP: Setting up the symmetry group for a
 simple orthorhombic supercell.

 Subroutine GETGRP returns: Found  8 space group operations
 (whereof  2 operations were pure point group operations)
 out of a pool of  8 trial point group operations.

The dynamic configuration has the point symmetry S_2 .
 The point group associated with its full space group is D_2h.

 Subroutine INISYM returns: Found  8 space group operations
 (whereof  2 operations are pure point group operations),
 and found     1 'primitive' translations

 KPOINTS: k-density: 6.0

Automatic generation of k-mesh.
Space group operators:
 irot       det(A)        alpha          n_x          n_y          n_z        tau_x        tau_y        tau_z
    1     1.000000     0.000000     1.000000     0.000000     0.000000     0.000000     0.000000     0.000000
    2    -1.000000     0.000000     1.000000     0.000000     0.000000     0.000000     0.000000     0.000000
    3     1.000000   180.000000     0.000000     0.000000     1.000000    -0.500000     0.000000    -0.500000
    4    -1.000000   180.000000     0.000000     0.000000     1.000000    -0.500000     0.000000    -0.500000
    5     1.000000   180.000000     1.000000     0.000000     0.000000    -0.500000    -0.500000    -0.500000
    6    -1.000000   180.000000     1.000000     0.000000     0.000000    -0.500000    -0.500000    -0.500000
    7     1.000000   180.000000     0.000000     1.000000     0.000000    -0.000000    -0.500000    -0.000000
    8    -1.000000   180.000000     0.000000     1.000000     0.000000     0.000000    -0.500000     0.000000

 Subroutine IBZKPT returns following result:

 Found     36 irreducible k-points:

 Following reciprocal coordinates:
            Coordinates               Weight
  0.000000  0.000000  0.000000      1.000000
  0.200000  0.000000  0.000000      2.000000
  0.400000  0.000000  0.000000      2.000000
  0.000000  0.166667  0.000000      2.000000
  0.200000  0.166667  0.000000      4.000000
  0.400000  0.166667  0.000000      4.000000
  0.000000  0.333333  0.000000      2.000000
  0.200000  0.333333  0.000000      4.000000
  0.400000  0.333333  0.000000      4.000000
  0.000000  0.500000  0.000000      1.000000
  0.200000  0.500000  0.000000      2.000000
  0.400000  0.500000  0.000000      2.000000
  0.000000  0.000000  0.250000      2.000000
  0.200000  0.000000  0.250000      4.000000
  0.400000  0.000000  0.250000      4.000000
  0.000000  0.166667  0.250000      4.000000
  0.200000  0.166667  0.250000      8.000000
  0.400000  0.166667  0.250000      8.000000
  0.000000  0.333333  0.250000      4.000000
  0.200000  0.333333  0.250000      8.000000
  0.400000  0.333333  0.250000      8.000000
  0.000000  0.500000  0.250000      2.000000
  0.200000  0.500000  0.250000      4.000000
  0.400000  0.500000  0.250000      4.000000
  0.000000  0.000000  0.500000      1.000000
  0.200000  0.000000  0.500000      2.000000
  0.400000  0.000000  0.500000      2.000000
  0.000000  0.166667  0.500000      2.000000
  0.200000  0.166667  0.500000      4.000000
  0.400000  0.166667  0.500000      4.000000
  0.000000  0.333333  0.500000      2.000000
  0.200000  0.333333  0.500000      4.000000
  0.400000  0.333333  0.500000      4.000000
  0.000000  0.500000  0.500000      1.000000
  0.200000  0.500000  0.500000      2.000000
  0.400000  0.500000  0.500000      2.000000

 Following cartesian coordinates:
            Coordinates               Weight
  0.000000  0.000000  0.000000      1.000000
  0.022199  0.000000  0.000000      2.000000
  0.044398  0.000000  0.000000      2.000000
  0.000000  0.024590  0.000000      2.000000
  0.022199  0.024590  0.000000      4.000000
  0.044398  0.024590  0.000000      4.000000
  0.000000  0.049180  0.000000      2.000000
  0.022199  0.049180  0.000000      4.000000
  0.044398  0.049180  0.000000      4.000000
  0.000000  0.073770  0.000000      1.000000
  0.022199  0.073770  0.000000      2.000000
  0.044398  0.073770  0.000000      2.000000
  0.000000  0.000000  0.021548      2.000000
  0.022199  0.000000  0.021548      4.000000
  0.044398  0.000000  0.021548      4.000000
  0.000000  0.024590  0.021548      4.000000
  0.022199  0.024590  0.021548      8.000000
  0.044398  0.024590  0.021548      8.000000
  0.000000  0.049180  0.021548      4.000000
  0.022199  0.049180  0.021548      8.000000
  0.044398  0.049180  0.021548      8.000000
  0.000000  0.073770  0.021548      2.000000
  0.022199  0.073770  0.021548      4.000000
  0.044398  0.073770  0.021548      4.000000
  0.000000  0.000000  0.043095      1.000000
  0.022199  0.000000  0.043095      2.000000
  0.044398  0.000000  0.043095      2.000000
  0.000000  0.024590  0.043095      2.000000
  0.022199  0.024590  0.043095      4.000000
  0.044398  0.024590  0.043095      4.000000
  0.000000  0.049180  0.043095      2.000000
  0.022199  0.049180  0.043095      4.000000
  0.044398  0.049180  0.043095      4.000000
  0.000000  0.073770  0.043095      1.000000
  0.022199  0.073770  0.043095      2.000000
  0.044398  0.073770  0.043095      2.000000

 TETIRR: Found    360 inequivalent tetrahedra from      720

 SYSTEM =  unknown system
 POSCAR =  ba8 ge16

 Startparameter for this run:
   NWRITE =      2    write-flag & timer
   PREC   = normal    normal or accurate (medium, high low for compatibility)
   ISTART =      0    job   : 0-new  1-cont  2-samecut
   ICHARG =      2    charge: 1-file 2-atom 10-const
   ISPIN  =      1    spin polarized calculation?
   LNONCOLLINEAR =      F non collinear calculations
   LSORBIT =      F    spin-orbit coupling
[...]
 d Force = 0.5748725E+00[ 0.563E+00, 0.586E+00]  d Ewald  =-0.3814895E+01 0.439E+01

[...]

 d Force = 0.2977616E-02[ 0.256E-02, 0.339E-02]  d Energy = 0.3545403E-02-0.568E-03
 d Force =-0.9835404E+00[-0.992E+00,-0.975E+00]  d Ewald  =-0.9762158E+00-0.732E-02

 Conjugate gradient step on ions:
 trial-energy change:   -0.003545  1 .order   -0.003412   -0.003980   -0.002844
  (g-gl).g = 0.399E-02      g.g   = 0.426E-02  gl.gl    = 0.516E-02
 g(Force)  = 0.367E-02   g(Stress)= 0.593E-03 ortho     = 0.131E-03
 gamma     =   0.77227
 trial     =   0.91249
 opt step  =   1.85197  (harmonic =   3.19469) maximal distance =0.01341253
 next E    =  -100.083859   (d E  =  -0.00515)

[...]

 d Force = 0.1240033E-04[-0.393E-04, 0.641E-04]  d Energy = 0.2571572E-03-0.245E-03
 d Force =-0.3175620E+00[-0.319E+00,-0.316E+00]  d Ewald  =-0.1878824E+01 0.156E+01

[...]

 d Force =-0.2852192E-03[-0.492E-03,-0.785E-04]  d Energy =-0.2108605E-03-0.744E-04
 d Force =-0.6424725E+00[-0.647E+00,-0.638E+00]  d Ewald  =-0.3760626E+01 0.312E+01

[...]

 d Force = 0.2397440E-03[ 0.148E-03, 0.332E-03]  d Energy = 0.2582597E-03-0.185E-04
 d Force = 0.4327977E+00[ 0.431E+00, 0.435E+00]  d Ewald  = 0.2535899E+01-0.210E+01

[...]

 Conjugate gradient step on ions:
 trial-energy change:   -0.001084  1 .order   -0.001113   -0.001409   -0.000818
  (g-gl).g =-0.216E-04      g.g   = 0.203E-02  gl.gl    = 0.449E-02
 g(Force)  = 0.121E-02   g(Stress)= 0.827E-03 ortho     =-0.193E-03
 gamma     =  -0.00481
 trial     =   0.69231
 opt step  =   1.65082  (harmonic =   1.65082) maximal distance =0.00441095
 next E    =  -100.089659   (d E  =  -0.00168)

[...]

 d Force = 0.5036810E-03[ 0.346E-03, 0.662E-03]  d Energy = 0.7324760E-03-0.229E-03
 d Force = 0.3213419E+00[ 0.320E+00, 0.323E+00]  d Ewald  =-0.1104306E+00 0.432E+00

[...]

 d Force =-0.3275409E-03[-0.135E-02, 0.692E-03]  d Energy =-0.1109449E-02 0.782E-03
 d Force = 0.6350446E+00[ 0.630E+00, 0.640E+00]  d Ewald  =-0.2245249E+00 0.860E+00

[...]

 d Force = 0.4506634E-03[ 0.263E-03, 0.638E-03]  d Energy = 0.4803149E-03-0.297E-04
 d Force =-0.1880978E+00[-0.190E+00,-0.187E+00]  d Ewald  = 0.1996223E+01-0.218E+01

[...]

 d Force = 0.2326060E-03[ 0.180E-03, 0.285E-03]  d Energy = 0.2767653E-03-0.442E-04
 d Force =-0.3177238E-01[-0.324E-01,-0.312E-01]  d Ewald  =-0.1145042E+01 0.111E+01

[...]

 d Force = 0.4735233E-04[-0.349E-04, 0.130E-03]  d Energy = 0.1460632E-03-0.987E-04
 d Force =-0.2416523E+00[-0.242E+00,-0.241E+00]  d Ewald  =-0.4002954E+00 0.159E+00

 Conjugate gradient step on ions:
 trial-energy change:   -0.000146  1 .order   -0.000109   -0.000200   -0.000017
  (g-gl).g = 0.349E-03      g.g   = 0.261E-03  gl.gl    = 0.343E-03
 g(Force)  = 0.150E-03   g(Stress)= 0.110E-03 ortho     =-0.477E-04
 gamma     =   1.01847
 trial     =   0.94511
 opt step  =   0.98458  (harmonic =   1.03467) maximal distance =0.00174145
 next E    =  -100.090917   (d E  =  -0.00015)

[...]

 d Force =-0.1865321E-05[-0.227E-05,-0.146E-05]  d Energy = 0.2990910E-06-0.216E-05
 d Force =-0.1011192E-01[-0.101E-01,-0.101E-01]  d Ewald  =-0.1673564E-01 0.662E-02

[...]

 d Force = 0.1198977E-03[ 0.103E-03, 0.137E-03]  d Energy = 0.1401006E-03-0.202E-04
 d Force =-0.4175104E-01[-0.420E-01,-0.415E-01]  d Ewald  = 0.1209276E+00-0.163E+00

 Conjugate gradient step on ions:
 trial-energy change:   -0.000140  1 .order   -0.000146   -0.000185   -0.000107
  (g-gl).g = 0.441E-04      g.g   = 0.194E-03  gl.gl    = 0.261E-03
 g(Force)  = 0.153E-03   g(Stress)= 0.409E-04 ortho     = 0.616E-06
 gamma     =   0.16937
 trial     =   0.95301
 opt step  =   2.25983  (harmonic =   2.25983) maximal distance =0.00187829
 next E    =  -100.091136   (d E  =  -0.00022)

[...]

 d Force = 0.6052930E-04[-0.202E-04, 0.141E-03]  d Energy = 0.2190437E-05 0.583E-04
 d Force =-0.5812516E-01[-0.586E-01,-0.576E-01]  d Ewald  = 0.1648664E+00-0.223E+00

 real space projection operators:
  max/ min on nodes  :       1376.04       1276.68

[...]

 eigenvalue-minimisations  :  6448
 total energy-change (2. order) :-0.5317634E-04  (-0.3009804E-03)
 number of electron     144.0000002 magnetization
 augmentation part      -24.4635107 magnetization

[...]

 Broyden mixing:
  rms(total) = 0.31549E-03    rms(broyden)= 0.31549E-03
  rms(prec ) = 0.43944E-03
  weight for this iteration     100.00

 eigenvalues of (default mixing * dielectric matrix)
  average eigenvalue GAMMA=   1.5832
  1.0105  2.1558

[...]

--------------------------------------- Iteration     29(   4)  ---------------------------------------

 BZINTS: Fermi energy:  2.646870;144.000000 electrons
         Band energy:***********;  BLOECHL correction:  0.000000

 eigenvalue-minimisations  :  4256
 total energy-change (2. order) : 0.5153715E-06  (-0.1669059E-06)
 number of electron     144.0000002 magnetization
 augmentation part      -24.4638296 magnetization

 Free energy of the ion-electron system (eV)
  alpha Z        PSCENC =       550.59440958
  Ewald energy   TEWEN  =     -6295.67065294
  -Hartree energ DENC   =      -935.01277097
  -exchange      EXHF   =         0.00000000
  -V(xc)+E(xc)   XCENC  =        82.20663774
  PAW double counting   =      4053.89270380    -3818.09474722
  entropy T*S    EENTRO =         0.00000000
  eigenvalues    EBANDS =     -1019.73867186
  atomic energy  EATOM  =      7281.73199354
  Solvation  Ediel_sol  =         0.00000000
  free energy    TOTEN  =      -100.09109833 eV

  energy without entropy =     -100.09109833  energy(sigma->0) =     -100.09109833

 average (electrostatic) potential at core
  the test charge radii are     1.2192  1.1631
  (the norm of the test charge is              1.0000)
       1 -37.5576       2 -37.5576       3 -37.5576       4 -37.5576       5 -37.5886
       6 -37.5886       7 -37.5886       8 -37.5886       9 -33.3914      10 -33.3914
      11 -33.3914      12 -33.3914      13 -33.3914      14 -33.3914      15 -33.3914
      16 -33.3914      17 -33.4370      18 -33.4370      19 -33.4370      20 -33.4370
      21 -33.3218      22 -33.3218      23 -33.3218      24 -33.3218

 E-fermi :   2.6469     XC(G=0):  -8.7330     alpha+bet : -8.9943

[...]

 k-point    36 :       0.4000    0.5000    0.5000
  band No.  band energies     occupation
      1     -25.2401      2.00000
      2     -25.2401      2.00000
      3     -25.2397      2.00000
      4     -25.2397      2.00000
      5     -25.2300      2.00000
      6     -25.2300      2.00000
      7     -25.2288      2.00000
      8     -25.2288      2.00000
      9     -10.7801      2.00000
     10     -10.7801      2.00000
     11     -10.7598      2.00000
     12     -10.7598      2.00000
     13     -10.7240      2.00000
     14     -10.7240      2.00000
     15     -10.7086      2.00000
     16     -10.7086      2.00000
     17     -10.6207      2.00000
     18     -10.6207      2.00000
     19     -10.5744      2.00000
     20     -10.5744      2.00000
     21     -10.5368      2.00000
     22     -10.5368      2.00000
     23     -10.5342      2.00000
     24     -10.5342      2.00000
     25     -10.4907      2.00000
     26     -10.4907      2.00000
     27     -10.4778      2.00000
     28     -10.4778      2.00000
     29     -10.4692      2.00000
     30     -10.4692      2.00000
     31     -10.4654      2.00000
     32     -10.4654      2.00000
     33      -8.0747      2.00000
     34      -8.0747      2.00000
     35      -8.0721      2.00000
     36      -8.0720      2.00000
     37      -4.3327      2.00000
     38      -4.3327      2.00000
     39      -4.2369      2.00000
     40      -4.2369      2.00000
     41      -4.0094      2.00000
     42      -4.0094      2.00000
     43      -3.9825      2.00000
     44      -3.9825      2.00000
     45      -3.8499      2.00000
     46      -3.8499      2.00000
     47      -3.7895      2.00000
     48      -3.7895      2.00000
     49       0.1732      2.00000
     50       0.1732      2.00000
     51       0.2697      2.00000
     52       0.2697      2.00000
     53       0.6357      2.00000
     54       0.6357      2.00000
     55       0.7574      2.00000
     56       0.7574      2.00000
     57       1.0156      2.00000
     58       1.0156      2.00000
     59       1.1573      2.00000
     60       1.1573      2.00000
[...]
     74       3.2755      0.00000
     75       3.4400      0.00000
     76       3.4400      0.00000
     77       3.5647      0.00000
     78       3.5647      0.00000
     79       3.7842      0.00000
     80       3.7842      0.00000
     81       4.2992      0.00000
     82       4.2992      0.00000
     83       4.4665      0.00000
     84       4.4665      0.00000
     85       4.7566      0.00000
     86       4.7566      0.00000
     87       4.8170      0.00000
     88       4.8170      0.00000

 soft charge-density along one line, spin component           1
         0         1         2         3         4         5         6         7         8         9
 total charge-density along one line

------------------------ aborting loop because EDIFF is reached ----------------------------------------

  FORCE on cell =-STRESS in cart. coord.  units (eV):
  Direction    XX          YY          ZZ          XY          YZ          ZX
  Alpha Z   550.59441   550.59441   550.59441
  Ewald   -2116.19064 -2089.66419 -2089.83079    -0.00000    -0.00000    -0.00013
  Hartree   299.87257   320.09564   315.04310     0.00000    -0.00000     0.00002
  E(xc)    -481.63031  -481.31467  -481.24457    -0.00000    -0.00000    -0.00000
  Local     193.52225   152.58176   158.95743     0.00000     0.00000     0.00008
  n-local    16.14800    13.57882    14.18138    -0.13874    -0.05899    -0.06470
  augment   -51.41238   -50.84952   -50.91123    -0.00000    -0.00000    -0.00000
  Kinetic  1589.07000  1585.07035  1583.08267     0.67002    -0.95370     0.03886
  Fock        0.00000     0.00000     0.00000     0.00000     0.00000     0.00000
  Total      -0.02610     0.09259    -0.12759     0.00000     0.00000     0.00000
  in kB      -0.05581     0.19800    -0.27284     0.00000     0.00000     0.00000

 VOLUME and BASIS-vectors are now :
  energy-cutoff  :      500.00
  volume of cell :      749.25
      direct lattice vectors                 reciprocal lattice vectors
     9.272917487  0.000000000  0.000000000     0.107840925 -0.000000000  0.000000000
     0.000000000  6.882360177  0.000000000    -0.000000000  0.145298993  0.000000000
     0.000000000  0.000000000 11.740162778     0.000000000  0.000000000  0.085177695

  length of vectors
     9.272917487  6.882360177 11.740162778     0.107840925  0.145298993  0.085177695

 FORCES acting on ions
    electron-ion (+dipol)            ewald-force                    non-local-force                 convergence-correction
   0.206E+01 0.829E-04 0.736E+01   -.235E+01 0.133E-04 -.781E+01   0.293E+00 -.332E-18 0.452E+00   -.411E-03 -.219E-09 -.556E-03
   -.206E+01 0.733E-05 -.736E+01   0.235E+01 -.187E-04 0.781E+01   -.293E+00 -.198E-18 -.452E+00   0.411E-03 -.235E-09 0.556E-03
   -.206E+01 0.310E-05 0.736E+01   0.235E+01 -.187E-04 -.781E+01   -.293E+00 -.978E-18 0.452E+00   0.411E-03 -.380E-09 -.556E-03
   0.206E+01 0.786E-04 -.736E+01   -.235E+01 0.133E-04 0.781E+01   0.293E+00 -.951E-18 -.452E+00   -.411E-03 -.364E-09 0.556E-03
   -.233E+02 0.535E-05 -.480E+01   0.223E+02 -.170E-04 0.482E+01   0.976E+00 -.198E-18 -.209E-01   0.226E-03 0.145E-09 0.229E-04
   0.233E+02 0.803E-04 0.480E+01   -.223E+02 0.162E-04 -.482E+01   -.976E+00 -.211E-19 0.209E-01   -.226E-03 0.596E-10 -.229E-04
   0.233E+02 0.797E-04 -.480E+01   -.223E+02 0.162E-04 0.482E+01   -.976E+00 0.870E-18 -.209E-01   -.226E-03 -.237E-09 0.229E-04
   -.233E+02 0.471E-05 0.480E+01   0.223E+02 -.170E-04 -.482E+01   0.976E+00 -.109E-17 0.209E-01   0.226E-03 -.152E-09 -.229E-04
   0.596E+01 0.210E+02 -.120E+02   -.657E+01 -.224E+02 0.128E+02   0.612E+00 0.142E+01 -.806E+00   0.103E-03 -.752E-04 -.118E-03
   -.596E+01 -.210E+02 0.120E+02   0.657E+01 0.224E+02 -.128E+02   -.612E+00 -.142E+01 0.806E+00   -.103E-03 0.752E-04 0.118E-03
   -.596E+01 -.210E+02 -.120E+02   0.657E+01 0.224E+02 0.128E+02   -.612E+00 -.142E+01 -.806E+00   -.103E-03 0.752E-04 -.118E-03
   0.596E+01 0.210E+02 0.120E+02   -.657E+01 -.224E+02 -.128E+02   0.612E+00 0.142E+01 0.806E+00   0.103E-03 -.752E-04 0.118E-03
   -.596E+01 0.210E+02 0.120E+02   0.657E+01 -.224E+02 -.128E+02   -.612E+00 0.142E+01 0.806E+00   -.103E-03 -.752E-04 0.118E-03
   0.596E+01 -.210E+02 -.120E+02   -.657E+01 0.224E+02 0.128E+02   0.612E+00 -.142E+01 -.806E+00   0.103E-03 0.752E-04 -.118E-03
   0.596E+01 -.210E+02 0.120E+02   -.657E+01 0.224E+02 -.128E+02   0.612E+00 -.142E+01 0.806E+00   0.103E-03 0.752E-04 0.118E-03
   -.596E+01 0.210E+02 -.120E+02   0.657E+01 -.224E+02 0.128E+02   -.612E+00 0.142E+01 -.806E+00   -.103E-03 -.752E-04 -.118E-03
   0.336E+02 -.995E-05 0.218E+01   -.354E+02 -.763E-05 -.255E+01   0.185E+01 0.828E-18 0.372E+00   -.785E-04 0.320E-09 -.408E-03
   -.336E+02 0.487E-05 -.218E+01   0.354E+02 0.776E-05 0.255E+01   -.185E+01 0.300E-17 -.372E+00   0.785E-04 0.179E-09 0.408E-03
   -.336E+02 0.104E-04 0.218E+01   0.354E+02 0.776E-05 -.255E+01   -.185E+01 0.414E-18 0.372E+00   0.785E-04 0.876E-10 -.408E-03
   0.336E+02 -.438E-05 -.218E+01   -.354E+02 -.763E-05 0.255E+01   0.185E+01 0.498E-18 -.372E+00   -.785E-04 0.228E-09 0.408E-03
   0.283E+01 0.170E-05 0.239E+02   -.314E+01 0.829E-05 -.255E+02   0.318E+00 -.543E-18 0.170E+01   0.287E-03 0.343E-10 -.116E-03
   -.283E+01 -.129E-04 -.239E+02   0.314E+01 -.877E-05 0.255E+02   -.318E+00 0.702E-18 -.170E+01   -.287E-03 0.472E-10 0.116E-03
   -.283E+01 0.352E-06 0.239E+02   0.314E+01 -.877E-05 -.255E+02   -.318E+00 0.235E-17 0.170E+01   -.287E-03 0.119E-09 -.116E-03
   0.283E+01 0.149E-04 -.239E+02   -.314E+01 0.829E-05 0.255E+02   0.318E+00 0.229E-17 -.170E+01   0.287E-03 0.106E-09 0.116E-03
   -.321E-03 0.467E-03 0.116E-03   -.622E-14 -.153E-13 -.142E-13   0.000E+00 0.232E-15 -.222E-15   0.633E-09 -.919E-10 0.367E-09

 POSITION                                       TOTAL-FORCE (eV/Angst)
      0.13336      1.72059      8.10682        -0.001074     -0.000000      0.001136
      9.13956      5.16177      3.63334         0.001074     -0.000000     -0.001136
      4.50310      5.16177      2.23674         0.001074     -0.000000      0.001136
      4.76982      1.72059      9.50343        -0.001074     -0.000000     -0.001136
      1.41234      5.16177     10.64743        -0.006935     -0.000000      0.001536
      7.86058      1.72059      1.09274         0.006935     -0.000000     -0.001536
      3.22412      1.72059      4.77735         0.006935     -0.000000      0.001536
      6.04880      5.16177      6.96282        -0.006935     -0.000000     -0.001536
      1.78615      0.42638      1.76395         0.002923     -0.005973      0.006260
      7.48677      6.45598      9.97621        -0.002923      0.005973     -0.006260
      2.85031      6.45598      7.63404        -0.002923      0.005973      0.006260
      6.42261      0.42638      4.10613         0.002923     -0.005973     -0.006260
      7.48677      3.86756      9.97621        -0.002923     -0.005973     -0.006260
      1.78615      3.01480      1.76395         0.002923      0.005973      0.006260
      6.42261      3.01480      4.10613         0.002923      0.005973     -0.006260
      2.85031      3.86756      7.63404        -0.002923     -0.005973      0.006260
      0.70105      5.16177      6.96521         0.003931     -0.000000      0.001881
      8.57186      1.72059      4.77495        -0.003931     -0.000000     -0.001881
      3.93541      1.72059      1.09513        -0.003931     -0.000000      0.001881
      5.33751      5.16177     10.64503         0.003931     -0.000000     -0.001881
      1.81347      1.72059     11.26069         0.000384     -0.000000      0.006006
      7.45945      5.16177      0.47948        -0.000384     -0.000000     -0.006006
      2.82299      5.16177      5.39061        -0.000384     -0.000000      0.006006
      6.44993      1.72059      6.34956         0.000384     -0.000000     -0.006006
    total drift:                               -0.000321      0.000467      0.000116

  FREE ENERGIE OF THE ION-ELECTRON SYSTEM (eV)
  free  energy   TOTEN  =      -100.09109833 eV

  energy  without entropy=     -100.09109833  energy(sigma->0) =     -100.09109833

 d Force =-0.1519128E-05[-0.124E-04, 0.933E-05]  d Energy = 0.3925180E-04-0.408E-04
 d Force = 0.2697065E-01[ 0.269E-01, 0.271E-01]  d Ewald  =-0.7591627E-01 0.103E+00

 reached required accuracy - stopping structural energy minimisation
 writing wavefunctions
 BZINTS: Fermi energy:  2.646870;144.000000 electrons
         Band energy:***********;  BLOECHL correction:  0.000000