 vasp.5.4.4.18Apr17-6-g9f103f2a35 (build Nov 21 2017 15:30:27) complex

 executed on             LinuxIFC date 2020.12.16  16:07:33

 INCAR:
 POTCAR:   PAW Ba_sv 17Apr2000
 POTCAR:   PAW Ge 03Mar1998

 POTCAR:   PAW Ba_sv 17Apr2000
   VRHFIN =Ba: s2p6s2

   TITEL  = PAW Ba_sv 17Apr2000
   POMASS =  137.327; ZVAL   =   10.000    mass and valenz
   ENMAX  =  186.981; ENMIN  =  140.236 eV
   QCUT   =   -3.707; QGAM   =    7.414    optimization parameters

   Description
     l     E      TYP  RCUT    TYP  RCUT
     0   .000     23  2.800
     0   .000     23  2.800
     1   .000     23  2.700
     1  2.000     23  2.700
     2   .000     23  2.700
     2   .000     23  2.700

 POTCAR:   PAW Ge 03Mar1998
   VRHFIN =Ge: s2p2

   TITEL  = PAW Ge 03Mar1998
   POMASS =   72.610; ZVAL   =    4.000    mass and valenz
   ENMAX  =  173.969; ENMIN  =  130.477 eV
   QCUT   =   -3.576; QGAM   =    7.152    optimization parameters

   Description
     l     E      TYP  RCUT    TYP  RCUT
     0   .000     23  2.300
     0   .000     23  2.300
     1   .000     23  2.300
     1   .000     23  2.300
     2   .000     23  2.300
     3  -.100      7  2.300

 Optimization of the real space projectors (new method)

 maximal supplied QI-value         = 13.42
 optimisation between [QCUT,QGAM] = [ 11.40, 22.81] = [ 36.42,145.68] Ry
 Optimized for a Real-space Cutoff    1.56 Angstroem

   l    n(q)    QCUT    max X(q) W(low)/X(q) W(high)/X(q)  e(spline)
   0     11    11.404     7.180    0.12E-04    0.23E-04    0.91E-07
   0     11    11.404    14.700    0.33E-04    0.82E-04    0.45E-06
   1     10    11.404     3.780    0.19E-04    0.22E-04    0.42E-07
   1     10    11.404     4.341    0.22E-03    0.98E-04    0.21E-06
   2     10    11.404     5.806    0.81E-04    0.60E-05    0.26E-06
   2     10    11.404    65.524    0.41E-03    0.30E-04    0.12E-05
 Optimization of the real space projectors (new method)

 maximal supplied QI-value         = 16.25
 optimisation between [QCUT,QGAM] = [ 11.38, 22.75] = [ 36.24,144.96] Ry
 Optimized for a Real-space Cutoff    1.27 Angstroem

   l    n(q)    QCUT    max X(q) W(low)/X(q) W(high)/X(q)  e(spline)
   0      9    11.376     8.430    0.24E-04    0.12E-04    0.12E-07
   0      9    11.376    33.187    0.15E-03    0.18E-03    0.88E-07
   1      8    11.376     5.816    0.23E-04    0.46E-04    0.36E-07
   1      8    11.376    27.463    0.31E-03    0.36E-04    0.16E-06
   2      8    11.376     4.658    0.15E-03    0.22E-03    0.49E-07
 PAW Ba_sv 17Apr2000                    :
 PAW Ge 03Mar1998                       :

 POSCAR: ba8 ge16
  positions in cartesian coordinates
 exchange correlation table for  LEXCH =        2
   RHO(1)=    0.500       N(1)  =     2000
   RHO(2)=  100.500       N(2)  =     4000

 ion  position               nearest neighbor table
   1  0.015  0.250  0.691-  24 3.40  18 3.40  13 3.45  10 3.45  16 3.45  11 3.45  21 3.60  17 3.63
                            17 3.63   5 4.41   5 4.41   7 4.42   4 4.71   4 4.71
   2  0.985  0.750  0.309-  23 3.40  17 3.40   9 3.45  14 3.45  12 3.45  15 3.45  22 3.60  18 3.63
                            18 3.63   6 4.41   6 4.41   8 4.42   3 4.71   3 4.71
   3  0.485  0.750  0.191-  22 3.40  20 3.40  12 3.45  15 3.45   9 3.45  14 3.45  23 3.60  19 3.63
                            19 3.63   7 4.41   7 4.41   5 4.42   2 4.71   2 4.71
   4  0.515  0.250  0.809-  21 3.40  19 3.40  16 3.45  11 3.45  13 3.45  10 3.45  24 3.60  20 3.63
                            20 3.63   8 4.41   8 4.41   6 4.42   1 4.71   1 4.71
   5  0.159  0.750  0.907-  10 3.46  13 3.46  21 3.48  21 3.48  11 3.50  16 3.50  22 3.54   9 3.55
                            14 3.55  17 3.71  20 3.82   1 4.41   1 4.41   3 4.42
   6  0.841  0.250  0.093-  14 3.46   9 3.46  22 3.48  22 3.48  15 3.50  12 3.50  21 3.54  13 3.55
                            10 3.55  18 3.71  19 3.82   2 4.41   2 4.41   4 4.42
   7  0.341  0.250  0.407-  15 3.46  12 3.46  23 3.48  23 3.48  14 3.50   9 3.50  24 3.54  16 3.55
                            11 3.55  19 3.71  18 3.82   3 4.41   3 4.41   1 4.42
   8  0.659  0.750  0.593-  11 3.46  16 3.46  24 3.48  24 3.48  10 3.50  13 3.50  23 3.54  12 3.55
                            15 3.55  20 3.71  17 3.82   4 4.41   4 4.41   2 4.42
   9  0.194  0.073  0.147-  14 2.41  21 2.41  19 2.42   2 3.45   3 3.45   6 3.46   7 3.50   5 3.55

  10  0.806  0.927  0.853-  13 2.41  22 2.41  20 2.42   1 3.45   4 3.45   5 3.46   8 3.50   6 3.55

[...]

  24  0.698  0.250  0.533-  15 2.41  12 2.41  18 2.45   1 3.40   8 3.48   8 3.48   7 3.54   4 3.60

  LATTYP: Found a simple orthorhombic cell.
 ALAT       =     6.7778496742
 B/A-ratio  =     1.3292516818
 C/A-ratio  =     1.7117734747

  Lattice vectors:

 A1 = (   0.0000000000,  -6.7778496742,   0.0000000000)
 A2 = (  -9.0094680786,   0.0000000000,   0.0000000000)
 A3 = (   0.0000000000,   0.0000000000, -11.6021432877)

Analysis of symmetry for initial positions (statically):
 Subroutine PRICEL returns:
 Original cell was already a primitive cell.

 Routine SETGRP: Setting up the symmetry group for a
 simple orthorhombic supercell.

 Subroutine GETGRP returns: Found  8 space group operations
 (whereof  2 operations were pure point group operations)
 out of a pool of  8 trial point group operations.

The static configuration has the point symmetry S_2 .
 The point group associated with its full space group is D_2h.

Analysis of symmetry for dynamics (positions and initial velocities):
 Subroutine PRICEL returns:
 Original cell was already a primitive cell.

 Routine SETGRP: Setting up the symmetry group for a
 simple orthorhombic supercell.

 Subroutine GETGRP returns: Found  8 space group operations
 (whereof  2 operations were pure point group operations)
 out of a pool of  8 trial point group operations.

The dynamic configuration has the point symmetry S_2 .
 The point group associated with its full space group is D_2h.

 Subroutine INISYM returns: Found  8 space group operations
 (whereof  2 operations are pure point group operations),
 and found     1 'primitive' translations

 KPOINTS: k-density: 6.0

Automatic generation of k-mesh.
Space group operators:
 irot       det(A)        alpha          n_x          n_y          n_z        tau_x        tau_y        tau_z
    1     1.000000     0.000000     1.000000     0.000000     0.000000     0.000000     0.000000     0.000000
    2    -1.000000     0.000000     1.000000     0.000000     0.000000     0.000000     0.000000     0.000000
    3     1.000000   180.000000     0.000000     0.000000     1.000000    -0.500000     0.000000    -0.500000
    4    -1.000000   180.000000     0.000000     0.000000     1.000000    -0.500000     0.000000    -0.500000
    5     1.000000   180.000000     1.000000     0.000000     0.000000    -0.500000    -0.500000    -0.500000
    6    -1.000000   180.000000     1.000000     0.000000     0.000000    -0.500000    -0.500000    -0.500000
    7     1.000000   180.000000     0.000000     1.000000     0.000000    -0.000000    -0.500000    -0.000000
    8    -1.000000   180.000000     0.000000     1.000000     0.000000     0.000000    -0.500000     0.000000

 Subroutine IBZKPT returns following result:

 Found     36 irreducible k-points:

 Following reciprocal coordinates:
            Coordinates               Weight
  0.000000  0.000000  0.000000      1.000000
  0.200000  0.000000  0.000000      2.000000
  0.400000  0.000000  0.000000      2.000000
  0.000000  0.166667  0.000000      2.000000
  0.200000  0.166667  0.000000      4.000000
  0.400000  0.166667  0.000000      4.000000
  0.000000  0.333333  0.000000      2.000000
  0.200000  0.333333  0.000000      4.000000
  0.400000  0.333333  0.000000      4.000000
  0.000000  0.500000  0.000000      1.000000
  0.200000  0.500000  0.000000      2.000000
  0.400000  0.500000  0.000000      2.000000
  0.000000  0.000000  0.250000      2.000000
  0.200000  0.000000  0.250000      4.000000
  0.400000  0.000000  0.250000      4.000000
  0.000000  0.166667  0.250000      4.000000
  0.200000  0.166667  0.250000      8.000000
  0.400000  0.166667  0.250000      8.000000
  0.000000  0.333333  0.250000      4.000000
  0.200000  0.333333  0.250000      8.000000
  0.400000  0.333333  0.250000      8.000000
  0.000000  0.500000  0.250000      2.000000
  0.200000  0.500000  0.250000      4.000000
  0.400000  0.500000  0.250000      4.000000
  0.000000  0.000000  0.500000      1.000000
  0.200000  0.000000  0.500000      2.000000
  0.400000  0.000000  0.500000      2.000000
  0.000000  0.166667  0.500000      2.000000
  0.200000  0.166667  0.500000      4.000000
  0.400000  0.166667  0.500000      4.000000
  0.000000  0.333333  0.500000      2.000000
  0.200000  0.333333  0.500000      4.000000
  0.400000  0.333333  0.500000      4.000000
  0.000000  0.500000  0.500000      1.000000
  0.200000  0.500000  0.500000      2.000000
  0.400000  0.500000  0.500000      2.000000

 Following cartesian coordinates:
            Coordinates               Weight
  0.000000  0.000000  0.000000      1.000000
  0.022199  0.000000  0.000000      2.000000
  0.044398  0.000000  0.000000      2.000000
  0.000000  0.024590  0.000000      2.000000
  0.022199  0.024590  0.000000      4.000000
  0.044398  0.024590  0.000000      4.000000
  0.000000  0.049180  0.000000      2.000000
  0.022199  0.049180  0.000000      4.000000
  0.044398  0.049180  0.000000      4.000000
  0.000000  0.073770  0.000000      1.000000
  0.022199  0.073770  0.000000      2.000000
  0.044398  0.073770  0.000000      2.000000
  0.000000  0.000000  0.021548      2.000000
  0.022199  0.000000  0.021548      4.000000
  0.044398  0.000000  0.021548      4.000000
  0.000000  0.024590  0.021548      4.000000
  0.022199  0.024590  0.021548      8.000000
  0.044398  0.024590  0.021548      8.000000
  0.000000  0.049180  0.021548      4.000000
  0.022199  0.049180  0.021548      8.000000
  0.044398  0.049180  0.021548      8.000000
  0.000000  0.073770  0.021548      2.000000
  0.022199  0.073770  0.021548      4.000000
  0.044398  0.073770  0.021548      4.000000
  0.000000  0.000000  0.043095      1.000000
  0.022199  0.000000  0.043095      2.000000
  0.044398  0.000000  0.043095      2.000000
  0.000000  0.024590  0.043095      2.000000
  0.022199  0.024590  0.043095      4.000000
  0.044398  0.024590  0.043095      4.000000
  0.000000  0.049180  0.043095      2.000000
  0.022199  0.049180  0.043095      4.000000
  0.044398  0.049180  0.043095      4.000000
  0.000000  0.073770  0.043095      1.000000
  0.022199  0.073770  0.043095      2.000000
  0.044398  0.073770  0.043095      2.000000

 TETIRR: Found    360 inequivalent tetrahedra from      720

 SYSTEM =  unknown system
 POSCAR =  ba8 ge16

 Startparameter for this run:
   NWRITE =      2    write-flag & timer
   PREC   = normal    normal or accurate (medium, high low for compatibility)
   ISTART =      0    job   : 0-new  1-cont  2-samecut
   ICHARG =      2    charge: 1-file 2-atom 10-const
   ISPIN  =      1    spin polarized calculation?
   LNONCOLLINEAR =      F non collinear calculations
   LSORBIT =      F    spin-orbit coupling
[...]
 d Force =-0.2071135E+02[-0.234E+02,-0.181E+02]  d Ewald  = 0.2359987E+02-0.443E+02

[...]

 d Force = 0.6224879E-01[ 0.433E-01, 0.812E-01]  d Energy = 0.3365195E+00-0.274E+00
 d Force = 0.1001534E+02[ 0.960E+01, 0.104E+02]  d Ewald  = 0.1039624E+03-0.939E+02

 Conjugate gradient step on ions:
 trial-energy change:   -0.336520  1 .order   -0.330726   -0.474767   -0.186684
  (g-gl).g = 0.570E+00      g.g   = 0.525E+00  gl.gl    = 0.456E+01
 g(Force)  = 0.408E-01   g(Stress)= 0.484E+00 ortho     =-0.451E-01
 gamma     =   0.12498
 trial     =   0.91375
 opt step  =   1.41278  (harmonic =   1.50589) maximal distance =0.03539019
 next E    =  -114.021803   (d E  =  -0.38844)

[...]

 d Force = 0.6012363E-02[ 0.206E-02, 0.997E-02]  d Energy = 0.6601161E-02-0.589E-03
 d Force = 0.1716329E+01[ 0.169E+01, 0.174E+01]  d Ewald  =-0.1050549E+00 0.182E+01

 Conjugate gradient step on ions:
 trial-energy change:   -0.006601  1 .order   -0.006534   -0.010832   -0.002235
  (g-gl).g = 0.263E-01      g.g   = 0.106E-01  gl.gl    = 0.525E+00
 g(Force)  = 0.850E-02   g(Stress)= 0.210E-02 ortho     = 0.918E-03
 gamma     =   0.05012
 trial     =   1.01783
 opt step  =   1.26768  (harmonic =   1.28237) maximal distance =0.00798216
 next E    =  -114.029913   (d E  =  -0.00688)

[...]

 d Force = 0.3715666E-02[ 0.254E-02, 0.489E-02]  d Energy = 0.4947513E-02-0.123E-02
 d Force =-0.2117301E+00[-0.224E+00,-0.200E+00]  d Ewald  = 0.4574881E+01-0.479E+01

[...]

 d Force = 0.1617030E-03[ 0.481E-04, 0.275E-03]  d Energy =-0.2622866E-04 0.188E-03
 d Force =-0.6163820E-01[-0.624E-01,-0.609E-01]  d Ewald  = 0.1161522E+01-0.122E+01

[...]

 d Force =-0.3697929E-04[-0.526E-04,-0.214E-04]  d Energy = 0.5153558E-04-0.885E-04
 d Force = 0.2753514E-01[ 0.274E-01, 0.277E-01]  d Ewald  =-0.5154139E+00 0.543E+00

[...]

 d Force = 0.5282390E-03[ 0.340E-03, 0.717E-03]  d Energy = 0.1235046E-02-0.707E-03
 d Force =-0.1956398E+00[-0.197E+00,-0.194E+00]  d Ewald  =-0.5148509E+01 0.495E+01

[...]

 Conjugate gradient step on ions:
 trial-energy change:   -0.000573  1 .order   -0.000592   -0.000753   -0.000431
  (g-gl).g = 0.367E-03      g.g   = 0.577E-03  gl.gl    = 0.175E-02
 g(Force)  = 0.542E-03   g(Stress)= 0.349E-04 ortho     = 0.100E-03
 gamma     =   0.20979
 trial     =   1.25991
 opt step  =   2.94524  (harmonic =   2.94524) maximal distance =0.00487777
 next E    =  -114.038257   (d E  =  -0.00088)

[...]

 d Force = 0.2587683E-03[-0.642E-04, 0.582E-03]  d Energy = 0.2283613E-03 0.304E-04
 d Force =-0.3727801E+00[-0.376E+00,-0.369E+00]  d Ewald  =-0.5629863E+00 0.190E+00

[...]

 d Force = 0.4171500E-03[ 0.237E-03, 0.597E-03]  d Energy = 0.3485349E-03 0.686E-04
 d Force = 0.4029302E+00[ 0.402E+00, 0.404E+00]  d Ewald  = 0.4321807E+01-0.392E+01

[...]

 d Force = 0.6371891E-05[ 0.512E-05, 0.763E-05]  d Energy = 0.1582911E-04-0.946E-05
 d Force = 0.3732068E-01[ 0.373E-01, 0.373E-01]  d Ewald  =-0.1058245E+00 0.143E+00

[...]

 d Force =-0.2804937E-04[-0.663E-04, 0.102E-04]  d Energy =-0.2850287E-04 0.454E-06
 d Force = 0.7448272E-01[ 0.744E-01, 0.746E-01]  d Ewald  =-0.2117881E+00 0.286E+00

[...]

 d Force = 0.2800177E-04[ 0.657E-05, 0.494E-04]  d Energy = 0.3198308E-04-0.398E-05
 d Force =-0.5549581E-01[-0.556E-01,-0.554E-01]  d Ewald  = 0.1578709E+00-0.213E+00

[...]

 d Force = 0.9802258E-04[ 0.633E-04, 0.133E-03]  d Energy = 0.1159247E-03-0.179E-04
 d Force =-0.1739169E+00[-0.174E+00,-0.174E+00]  d Ewald  =-0.7638938E+00 0.590E+00

 Conjugate gradient step on ions:
 trial-energy change:   -0.000116  1 .order   -0.000112   -0.000150   -0.000075
  (g-gl).g = 0.546E-04      g.g   = 0.187E-03  gl.gl    = 0.329E-03
 g(Force)  = 0.169E-03   g(Stress)= 0.186E-04 ortho     =-0.309E-05
 gamma     =   0.16573
 trial     =   0.80047
 opt step  =   1.61043  (harmonic =   1.61043) maximal distance =0.00141053
 next E    =  -114.039574   (d E  =  -0.00015)

 real space projection operators:
  max/ min on nodes  :       1524.34       1416.11

[...]

 eigenvalue-minimisations  :  7408
 total energy-change (2. order) : 0.1098282E-04  (-0.4298658E-05)
 number of electron     144.0000015 magnetization
 augmentation part      -24.0957750 magnetization

 Broyden mixing:
  rms(total) = 0.28001E-03    rms(broyden)= 0.28001E-03
  rms(prec ) = 0.34596E-03
  weight for this iteration     100.00

 eigenvalues of (default mixing * dielectric matrix)
  average eigenvalue GAMMA=   1.3471
  0.9504  1.7437

[...]

--------------------------------------- Iteration     27(   4)  ---------------------------------------

 BZINTS: Fermi energy:  3.117052;144.000000 electrons
         Band energy:-952.156793;  BLOECHL correction:  0.000000

 eigenvalue-minimisations  :  4952
 total energy-change (2. order) :-0.2234292E-06  (-0.2046688E-06)
 number of electron     144.0000015 magnetization
 augmentation part      -24.0957750 magnetization

 Free energy of the ion-electron system (eV)
  alpha Z        PSCENC =       579.77589243
  Ewald energy   TEWEN  =     -6519.95987760
  -Hartree energ DENC   =      -857.57891534
  -exchange      EXHF   =         0.00000000
  -V(xc)+E(xc)   XCENC  =        89.19378888
  PAW double counting   =      4132.61669717    -3917.11298891
  entropy T*S    EENTRO =         0.00000000
  eigenvalues    EBANDS =      -952.15679259
  atomic energy  EATOM  =      7331.18263396
  Solvation  Ediel_sol  =         0.00000000
  free energy    TOTEN  =      -114.03956202 eV

  energy without entropy =     -114.03956202  energy(sigma->0) =     -114.03956202

 average (electrostatic) potential at core
  the test charge radii are     1.2192  1.1631
  (the norm of the test charge is              1.0000)
       1 -35.8764       2 -35.8764       3 -35.8764       4 -35.8764       5 -35.9382
       6 -35.9382       7 -35.9382       8 -35.9382       9 -35.4591      10 -35.4591
      11 -35.4591      12 -35.4591      13 -35.4591      14 -35.4591      15 -35.4591
      16 -35.4591      17 -35.4983      18 -35.4983      19 -35.4983      20 -35.4983
      21 -35.3702      22 -35.3702      23 -35.3702      24 -35.3702

 E-fermi :   3.1171     XC(G=0):  -9.3450     alpha+bet : -9.9076

[...]

 k-point    36 :       0.4000    0.5000    0.5000
  band No.  band energies     occupation
      1     -24.5550      2.00000
      2     -24.5550      2.00000
      3     -24.5548      2.00000
      4     -24.5548      2.00000
      5     -24.5241      2.00000
      6     -24.5241      2.00000
      7     -24.5213      2.00000
      8     -24.5213      2.00000
      9     -10.2652      2.00000
     10     -10.2652      2.00000
     11     -10.2341      2.00000
     12     -10.2341      2.00000
     13     -10.1268      2.00000
     14     -10.1268      2.00000
     15     -10.1006      2.00000
     16     -10.1006      2.00000
     17      -9.9705      2.00000
     18      -9.9705      2.00000
     19      -9.8993      2.00000
     20      -9.8993      2.00000
     21      -9.8396      2.00000
     22      -9.8396      2.00000
     23      -9.8355      2.00000
     24      -9.8355      2.00000
     25      -9.7835      2.00000
     26      -9.7835      2.00000
     27      -9.7624      2.00000
     28      -9.7624      2.00000
     29      -9.7396      2.00000
     30      -9.7396      2.00000
     31      -9.7377      2.00000
     32      -9.7377      2.00000
     33      -7.8705      2.00000
     34      -7.8705      2.00000
     35      -7.8670      2.00000
     36      -7.8670      2.00000
     37      -4.0611      2.00000
     38      -4.0611      2.00000
     39      -3.9452      2.00000
     40      -3.9452      2.00000
     41      -3.7060      2.00000
     42      -3.7060      2.00000
     43      -3.6642      2.00000
     44      -3.6642      2.00000
     45      -3.4876      2.00000
     46      -3.4876      2.00000
     47      -3.4067      2.00000
     48      -3.4067      2.00000
     49       0.4522      2.00000
     50       0.4522      2.00000
     51       0.5457      2.00000
     52       0.5457      2.00000
     53       0.9420      2.00000
     54       0.9420      2.00000
     55       1.0534      2.00000
     56       1.0534      2.00000
     57       1.3222      2.00000
     58       1.3222      2.00000
     59       1.4558      2.00000
     60       1.4558      2.00000
[...]
     74       3.6177      0.00000
     75       3.7975      0.00000
     76       3.7975      0.00000
     77       3.9982      0.00000
     78       3.9982      0.00000
     79       4.2553      0.00000
     80       4.2553      0.00000
     81       4.8249      0.00000
     82       4.8249      0.00000
     83       4.9264      0.00000
     84       4.9264      0.00000
     85       5.3026      0.00000
     86       5.3026      0.00000
     87       5.3239      0.00000
     88       5.3239      0.00000

 soft charge-density along one line, spin component           1
         0         1         2         3         4         5         6         7         8         9
 total charge-density along one line

------------------------ aborting loop because EDIFF is reached ----------------------------------------

  FORCE on cell =-STRESS in cart. coord.  units (eV):
  Direction    XX          YY          ZZ          XY          YZ          ZX
  Alpha Z   579.77589   579.77589   579.77589
  Ewald   -2183.62279 -2172.27819 -2164.07742    -0.00000    -0.00000    -0.00012
  Hartree   278.77538   289.85635   288.94933     0.00000    -0.00000     0.00001
  E(xc)    -476.37058  -476.08956  -476.00304    -0.00000    -0.00000    -0.00000
  Local     227.57760   210.74274   205.05033     0.00000    -0.00000     0.00007
  n-local    35.47455    33.36358    33.66788    -0.18518    -0.03301    -0.05256
  augment   -59.52165   -58.95717   -58.99717    -0.00000     0.00000    -0.00000
  Kinetic  1597.89302  1593.63472  1591.63412     0.76078    -1.07450     0.18539
  Fock        0.00000     0.00000     0.00000     0.00000     0.00000     0.00000
  Total      -0.01858     0.04835    -0.00008    -0.00000     0.00000     0.00000
  in kB      -0.04383     0.11408    -0.00018    -0.00000     0.00000     0.00000

 VOLUME and BASIS-vectors are now :
  energy-cutoff  :      500.00
  volume of cell :      679.08
      direct lattice vectors                 reciprocal lattice vectors
     8.907029500 -0.000000000  0.000000000     0.112270875 -0.000000000  0.000000000
     0.000000000  6.700356686  0.000000000     0.000000000  0.149245786  0.000000000
     0.000000000  0.000000000 11.378663594     0.000000000  0.000000000  0.087883783

  length of vectors
     8.907029500  6.700356686 11.378663594     0.112270875  0.149245786  0.087883783

 FORCES acting on ions
    electron-ion (+dipol)            ewald-force                    non-local-force                 convergence-correction
   0.275E+01 0.769E-04 0.770E+01   -.304E+01 0.144E-04 -.798E+01   0.286E+00 0.143E-17 0.283E+00   -.337E-03 0.376E-08 -.101E-03
   -.275E+01 0.560E-05 -.770E+01   0.304E+01 -.202E-04 0.798E+01   -.286E+00 0.214E-17 -.283E+00   0.337E-03 0.330E-08 0.101E-03
   -.275E+01 0.175E-05 0.770E+01   0.304E+01 -.202E-04 -.798E+01   -.286E+00 -.178E-17 0.283E+00   0.337E-03 0.371E-08 -.101E-03
   0.275E+01 0.731E-04 -.770E+01   -.304E+01 0.144E-04 0.798E+01   0.286E+00 0.173E-17 -.283E+00   -.337E-03 0.416E-08 0.101E-03
   -.218E+02 0.414E-05 -.506E+01   0.209E+02 -.183E-04 0.506E+01   0.855E+00 -.380E-18 0.305E-02   -.603E-03 -.267E-09 0.635E-04
   0.218E+02 0.750E-04 0.506E+01   -.209E+02 0.174E-04 -.506E+01   -.855E+00 0.252E-18 -.305E-02   0.603E-03 -.147E-09 -.635E-04
   0.218E+02 0.746E-04 -.506E+01   -.209E+02 0.174E-04 0.506E+01   -.855E+00 -.142E-17 0.305E-02   0.603E-03 -.319E-09 0.635E-04
   -.218E+02 0.373E-05 0.506E+01   0.209E+02 -.183E-04 -.506E+01   0.855E+00 0.126E-17 -.305E-02   -.603E-03 -.439E-09 -.635E-04
   0.615E+01 0.201E+02 -.112E+02   -.662E+01 -.213E+02 0.119E+02   0.478E+00 0.125E+01 -.675E+00   0.537E-05 0.777E-04 -.770E-04
   -.615E+01 -.201E+02 0.112E+02   0.662E+01 0.213E+02 -.119E+02   -.478E+00 -.125E+01 0.675E+00   -.537E-05 -.777E-04 0.770E-04
   -.615E+01 -.201E+02 -.112E+02   0.662E+01 0.213E+02 0.119E+02   -.478E+00 -.125E+01 -.675E+00   -.537E-05 -.777E-04 -.770E-04
   0.615E+01 0.201E+02 0.112E+02   -.662E+01 -.213E+02 -.119E+02   0.478E+00 0.125E+01 0.675E+00   0.537E-05 0.777E-04 0.770E-04
   -.615E+01 0.201E+02 0.112E+02   0.662E+01 -.213E+02 -.119E+02   -.478E+00 0.125E+01 0.675E+00   -.537E-05 0.777E-04 0.770E-04
   0.615E+01 -.201E+02 -.112E+02   -.662E+01 0.213E+02 0.119E+02   0.478E+00 -.125E+01 -.675E+00   0.537E-05 -.777E-04 -.770E-04
   0.615E+01 -.201E+02 0.112E+02   -.662E+01 0.213E+02 -.119E+02   0.478E+00 -.125E+01 0.675E+00   0.537E-05 -.777E-04 0.770E-04
   -.615E+01 0.201E+02 -.112E+02   0.662E+01 -.213E+02 0.119E+02   -.478E+00 0.125E+01 -.675E+00   -.537E-05 0.777E-04 -.770E-04
   0.317E+02 -.106E-04 0.218E+01   -.333E+02 -.830E-05 -.263E+01   0.156E+01 -.123E-17 0.440E+00   0.133E-03 -.111E-08 -.747E-04
   -.317E+02 0.462E-05 -.218E+01   0.333E+02 0.844E-05 0.263E+01   -.156E+01 0.257E-17 -.440E+00   -.133E-03 -.115E-08 0.747E-04
   -.317E+02 0.107E-04 0.218E+01   0.333E+02 0.844E-05 -.263E+01   -.156E+01 0.388E-17 0.440E+00   -.133E-03 -.122E-08 -.747E-04
   0.317E+02 -.455E-05 -.218E+01   -.333E+02 -.830E-05 0.263E+01   0.156E+01 -.417E-17 -.440E+00   0.133E-03 -.118E-08 0.747E-04
   0.272E+01 0.862E-06 0.225E+02   -.296E+01 0.898E-05 -.241E+02   0.232E+00 0.262E-18 0.151E+01   0.131E-03 -.305E-09 0.293E-03
   -.272E+01 -.140E-04 -.225E+02   0.296E+01 -.954E-05 0.241E+02   -.232E+00 -.560E-19 -.151E+01   -.131E-03 -.177E-09 -.293E-03
   -.272E+01 -.679E-06 0.225E+02   0.296E+01 -.954E-05 -.241E+02   -.232E+00 -.836E-18 0.151E+01   -.131E-03 0.124E-09 0.293E-03
   0.272E+01 0.142E-04 -.225E+02   -.296E+01 0.898E-05 0.241E+02   0.232E+00 -.326E-18 -.151E+01   0.131E-03 -.426E-11 -.293E-03
   -.302E-03 0.440E-03 0.117E-03   0.755E-14 -.337E-13 -.213E-13   0.444E-15 -.222E-15 0.222E-15   -.143E-08 0.503E-08 -.372E-08

 POSITION                                       TOTAL-FORCE (eV/Angst)
      0.14997      1.67509      7.85044        -0.002993      0.000000      0.002013
      8.75706      5.02527      3.52822         0.002993      0.000000     -0.002013
      4.30355      5.02527      2.16111         0.002993      0.000000      0.002013
      4.60348      1.67509      9.21755        -0.002993     -0.000000     -0.002013
      1.40903      5.02527     10.32289         0.001947      0.000000      0.000441
      7.49800      1.67509      1.05577        -0.001947     -0.000000     -0.000441
      3.04448      1.67509      4.63356        -0.001947      0.000000      0.000441
      5.86255      5.02527      6.74511         0.001947     -0.000000     -0.000441
      1.68320      0.40684      1.71252         0.006863     -0.002805      0.002104
      7.22383      6.29351      9.66615        -0.006863      0.002805     -0.002104
      2.77031      6.29351      7.40185        -0.006863      0.002805      0.002104
      6.13672      0.40684      3.97681         0.006863     -0.002805     -0.002104
      7.22383      3.75702      9.66615        -0.006863     -0.002805     -0.002104
      1.68320      2.94333      1.71252         0.006863      0.002805      0.002104
      6.13672      2.94333      3.97681         0.006863      0.002805     -0.002104
      2.77031      3.75702      7.40185        -0.006863     -0.002805      0.002104
      0.64816      5.02527      6.76806        -0.004698      0.000000     -0.002679
      8.25887      1.67509      4.61060         0.004698     -0.000000      0.002679
      3.80535      1.67509      1.07873         0.004698      0.000000     -0.002679
      5.10168      5.02527     10.29993        -0.004698      0.000000      0.002679
      1.71738      1.67509     10.89138        -0.004009     -0.000000     -0.002538
      7.18965      5.02527      0.48729         0.004009     -0.000000      0.002538
      2.73614      5.02527      5.20204         0.004009      0.000000     -0.002538
      6.17089      1.67509      6.17662        -0.004009      0.000000      0.002538
    total drift:                               -0.000302      0.000440      0.000117

  FREE ENERGIE OF THE ION-ELECTRON SYSTEM (eV)
  free  energy   TOTEN  =      -114.03956202 eV

  energy  without entropy=     -114.03956202  energy(sigma->0) =     -114.03956202

 d Force = 0.1819050E-04[-0.276E-04, 0.640E-04]  d Energy = 0.2220929E-04-0.402E-05
 d Force =-0.1764668E+00[-0.177E+00,-0.176E+00]  d Ewald  =-0.7733092E+00 0.597E+00

 reached required accuracy - stopping structural energy minimisation
 writing wavefunctions
 BZINTS: Fermi energy:  3.117052;144.000000 electrons
         Band energy:-952.156793;  BLOECHL correction:  0.000000