 vasp.5.4.4.18Apr17-6-g9f103f2a35 (build Nov 21 2017 15:30:27) complex

 executed on             LinuxIFC date 2020.12.16  16:37:40

 INCAR:
 POTCAR:   PAW_PBE Ba_sv 06Sep2000
 POTCAR:   PAW_PBE Ge 05Jan2001

 POTCAR:   PAW_PBE Ba_sv 06Sep2000
   VRHFIN =Ba: 5s5p6s

   TITEL  = PAW_PBE Ba_sv 06Sep2000
   POMASS =  137.327; ZVAL   =   10.000    mass and valenz
   ENMAX  =  187.210; ENMIN  =  140.408 eV
   QCUT   =   -3.709; QGAM   =    7.419    optimization parameters

   Description
     l     E      TYP  RCUT    TYP  RCUT
     0   .000     23  2.800
     0   .000     23  2.800
     1   .000     23  2.700
     1  2.000     23  2.700
     2   .000     23  2.700
     2   .000     23  2.700

 POTCAR:   PAW_PBE Ge 05Jan2001
   VRHFIN =Ge: s2p2

   TITEL  = PAW_PBE Ge 05Jan2001
   POMASS =   72.610; ZVAL   =    4.000    mass and valenz
   ENMAX  =  173.807; ENMIN  =  130.355 eV
   QCUT   =   -3.574; QGAM   =    7.148    optimization parameters

   Description
     l     E      TYP  RCUT    TYP  RCUT
     0   .000     23  2.300
     0   .000     23  2.300
     1   .000     23  2.300
     1   .000     23  2.300
     2   .000     23  2.300
     3  -.100      7  2.300

 Optimization of the real space projectors (new method)

 maximal supplied QI-value         = 13.42
 optimisation between [QCUT,QGAM] = [ 11.40, 22.81] = [ 36.42,145.68] Ry
 Optimized for a Real-space Cutoff    1.56 Angstroem

   l    n(q)    QCUT    max X(q) W(low)/X(q) W(high)/X(q)  e(spline)
   0     11    11.404     7.198    0.14E-04    0.26E-04    0.99E-07
   0     11    11.404    15.603    0.29E-04    0.72E-04    0.44E-06
   1     10    11.404     3.746    0.20E-04    0.24E-04    0.43E-07
   1     10    11.404     4.362    0.22E-03    0.97E-04    0.22E-06
   2     10    11.404     5.782    0.83E-04    0.62E-05    0.27E-06
   2     10    11.404    65.505    0.42E-03    0.31E-04    0.12E-05
 Optimization of the real space projectors (new method)

 maximal supplied QI-value         = 16.25
 optimisation between [QCUT,QGAM] = [ 11.38, 22.75] = [ 36.24,144.96] Ry
 Optimized for a Real-space Cutoff    1.27 Angstroem

   l    n(q)    QCUT    max X(q) W(low)/X(q) W(high)/X(q)  e(spline)
   0      9    11.376     8.651    0.25E-04    0.12E-04    0.13E-07
   0      9    11.376    33.192    0.14E-03    0.18E-03    0.86E-07
   1      8    11.376     5.899    0.25E-04    0.48E-04    0.38E-07
   1      8    11.376    27.289    0.31E-03    0.36E-04    0.16E-06
   2      8    11.376     4.673    0.15E-03    0.22E-03    0.50E-07

 PAW_PBE Ba_sv 06Sep2000                :
 PAW_PBE Ge 05Jan2001                   :

 POSCAR: ba8 ge16
  positions in cartesian coordinates
 exchange correlation table for  LEXCH =       42
   RHO(1)=    0.500       N(1)  =     2000
   RHO(2)=  100.500       N(2)  =     4000

 ion  position               nearest neighbor table
   1  0.015  0.250  0.691-  24 3.40  18 3.40  13 3.45  10 3.45  16 3.45  11 3.45  21 3.60  17 3.63
                            17 3.63   5 4.41   5 4.41   7 4.42   4 4.71   4 4.71
   2  0.985  0.750  0.309-  23 3.40  17 3.40   9 3.45  14 3.45  12 3.45  15 3.45  22 3.60  18 3.63
                            18 3.63   6 4.41   6 4.41   8 4.42   3 4.71   3 4.71
   3  0.485  0.750  0.191-  22 3.40  20 3.40  12 3.45  15 3.45   9 3.45  14 3.45  23 3.60  19 3.63
                            19 3.63   7 4.41   7 4.41   5 4.42   2 4.71   2 4.71
   4  0.515  0.250  0.809-  21 3.40  19 3.40  16 3.45  11 3.45  13 3.45  10 3.45  24 3.60  20 3.63
                            20 3.63   8 4.41   8 4.41   6 4.42   1 4.71   1 4.71
   5  0.159  0.750  0.907-  10 3.46  13 3.46  21 3.48  21 3.48  11 3.50  16 3.50  22 3.54   9 3.55
                            14 3.55  17 3.71  20 3.82   1 4.41   1 4.41   3 4.42
   6  0.841  0.250  0.093-  14 3.46   9 3.46  22 3.48  22 3.48  15 3.50  12 3.50  21 3.54  13 3.55
                            10 3.55  18 3.71  19 3.82   2 4.41   2 4.41   4 4.42
   7  0.341  0.250  0.407-  15 3.46  12 3.46  23 3.48  23 3.48  14 3.50   9 3.50  24 3.54  16 3.55
                            11 3.55  19 3.71  18 3.82   3 4.41   3 4.41   1 4.42
   8  0.659  0.750  0.593-  11 3.46  16 3.46  24 3.48  24 3.48  10 3.50  13 3.50  23 3.54  12 3.55
                            15 3.55  20 3.71  17 3.82   4 4.41   4 4.41   2 4.42
   9  0.194  0.073  0.147-  14 2.41  21 2.41  19 2.42   2 3.45   3 3.45   6 3.46   7 3.50   5 3.55

  10  0.806  0.927  0.853-  13 2.41  22 2.41  20 2.42   1 3.45   4 3.45   5 3.46   8 3.50   6 3.55

[...]

  24  0.698  0.250  0.533-  15 2.41  12 2.41  18 2.45   1 3.40   8 3.48   8 3.48   7 3.54   4 3.60

  LATTYP: Found a simple orthorhombic cell.
 ALAT       =     6.7778496742
 B/A-ratio  =     1.3292516818
 C/A-ratio  =     1.7117734747

  Lattice vectors:

 A1 = (   0.0000000000,  -6.7778496742,   0.0000000000)
 A2 = (  -9.0094680786,   0.0000000000,   0.0000000000)
 A3 = (   0.0000000000,   0.0000000000, -11.6021432877)

Analysis of symmetry for initial positions (statically):
 Subroutine PRICEL returns:
 Original cell was already a primitive cell.

 Routine SETGRP: Setting up the symmetry group for a
 simple orthorhombic supercell.

 Subroutine GETGRP returns: Found  8 space group operations
 (whereof  2 operations were pure point group operations)
 out of a pool of  8 trial point group operations.

The static configuration has the point symmetry S_2 .
 The point group associated with its full space group is D_2h.

Analysis of symmetry for dynamics (positions and initial velocities):
 Subroutine PRICEL returns:
 Original cell was already a primitive cell.

 Routine SETGRP: Setting up the symmetry group for a
 simple orthorhombic supercell.

 Subroutine GETGRP returns: Found  8 space group operations
 (whereof  2 operations were pure point group operations)
 out of a pool of  8 trial point group operations.

The dynamic configuration has the point symmetry S_2 .
 The point group associated with its full space group is D_2h.

 Subroutine INISYM returns: Found  8 space group operations
 (whereof  2 operations are pure point group operations),
 and found     1 'primitive' translations

 KPOINTS: k-density: 6.0

Automatic generation of k-mesh.
Space group operators:
 irot       det(A)        alpha          n_x          n_y          n_z        tau_x        tau_y        tau_z
    1     1.000000     0.000000     1.000000     0.000000     0.000000     0.000000     0.000000     0.000000
    2    -1.000000     0.000000     1.000000     0.000000     0.000000     0.000000     0.000000     0.000000
    3     1.000000   180.000000     0.000000     0.000000     1.000000    -0.500000     0.000000    -0.500000
    4    -1.000000   180.000000     0.000000     0.000000     1.000000    -0.500000     0.000000    -0.500000
    5     1.000000   180.000000     1.000000     0.000000     0.000000    -0.500000    -0.500000    -0.500000
    6    -1.000000   180.000000     1.000000     0.000000     0.000000    -0.500000    -0.500000    -0.500000
    7     1.000000   180.000000     0.000000     1.000000     0.000000    -0.000000    -0.500000    -0.000000
    8    -1.000000   180.000000     0.000000     1.000000     0.000000     0.000000    -0.500000     0.000000

 Subroutine IBZKPT returns following result:

 Found     36 irreducible k-points:

 Following reciprocal coordinates:
            Coordinates               Weight
  0.000000  0.000000  0.000000      1.000000
  0.200000  0.000000  0.000000      2.000000
  0.400000  0.000000  0.000000      2.000000
  0.000000  0.166667  0.000000      2.000000
  0.200000  0.166667  0.000000      4.000000
  0.400000  0.166667  0.000000      4.000000
  0.000000  0.333333  0.000000      2.000000
  0.200000  0.333333  0.000000      4.000000
  0.400000  0.333333  0.000000      4.000000
  0.000000  0.500000  0.000000      1.000000
  0.200000  0.500000  0.000000      2.000000
  0.400000  0.500000  0.000000      2.000000
  0.000000  0.000000  0.250000      2.000000
  0.200000  0.000000  0.250000      4.000000
  0.400000  0.000000  0.250000      4.000000
  0.000000  0.166667  0.250000      4.000000
  0.200000  0.166667  0.250000      8.000000
  0.400000  0.166667  0.250000      8.000000
  0.000000  0.333333  0.250000      4.000000
  0.200000  0.333333  0.250000      8.000000
  0.400000  0.333333  0.250000      8.000000
  0.000000  0.500000  0.250000      2.000000
  0.200000  0.500000  0.250000      4.000000
  0.400000  0.500000  0.250000      4.000000
  0.000000  0.000000  0.500000      1.000000
  0.200000  0.000000  0.500000      2.000000
  0.400000  0.000000  0.500000      2.000000
  0.000000  0.166667  0.500000      2.000000
  0.200000  0.166667  0.500000      4.000000
  0.400000  0.166667  0.500000      4.000000
  0.000000  0.333333  0.500000      2.000000
  0.200000  0.333333  0.500000      4.000000
  0.400000  0.333333  0.500000      4.000000
  0.000000  0.500000  0.500000      1.000000
  0.200000  0.500000  0.500000      2.000000
  0.400000  0.500000  0.500000      2.000000

 Following cartesian coordinates:
            Coordinates               Weight
  0.000000  0.000000  0.000000      1.000000
  0.022199  0.000000  0.000000      2.000000
  0.044398  0.000000  0.000000      2.000000
  0.000000  0.024590  0.000000      2.000000
  0.022199  0.024590  0.000000      4.000000
  0.044398  0.024590  0.000000      4.000000
  0.000000  0.049180  0.000000      2.000000
  0.022199  0.049180  0.000000      4.000000
  0.044398  0.049180  0.000000      4.000000
  0.000000  0.073770  0.000000      1.000000
  0.022199  0.073770  0.000000      2.000000
  0.044398  0.073770  0.000000      2.000000
  0.000000  0.000000  0.021548      2.000000
  0.022199  0.000000  0.021548      4.000000
  0.044398  0.000000  0.021548      4.000000
  0.000000  0.024590  0.021548      4.000000
  0.022199  0.024590  0.021548      8.000000
  0.044398  0.024590  0.021548      8.000000
  0.000000  0.049180  0.021548      4.000000
  0.022199  0.049180  0.021548      8.000000
  0.044398  0.049180  0.021548      8.000000
  0.000000  0.073770  0.021548      2.000000
  0.022199  0.073770  0.021548      4.000000
  0.044398  0.073770  0.021548      4.000000
  0.000000  0.000000  0.043095      1.000000
  0.022199  0.000000  0.043095      2.000000
  0.044398  0.000000  0.043095      2.000000
  0.000000  0.024590  0.043095      2.000000
  0.022199  0.024590  0.043095      4.000000
  0.044398  0.024590  0.043095      4.000000
  0.000000  0.049180  0.043095      2.000000
  0.022199  0.049180  0.043095      4.000000
  0.044398  0.049180  0.043095      4.000000
  0.000000  0.073770  0.043095      1.000000
  0.022199  0.073770  0.043095      2.000000
  0.044398  0.073770  0.043095      2.000000

 TETIRR: Found    360 inequivalent tetrahedra from      720

 SYSTEM =  unknown system
 POSCAR =  ba8 ge16

 Startparameter for this run:
   NWRITE =      2    write-flag & timer
   PREC   = normal    normal or accurate (medium, high low for compatibility)
   ISTART =      0    job   : 0-new  1-cont  2-samecut
   ICHARG =      2    charge: 1-file 2-atom 10-const
   ISPIN  =      1    spin polarized calculation?
   LNONCOLLINEAR =      F non collinear calculations
   LSORBIT =      F    spin-orbit coupling
[...]
 d Force =-0.2616538E+02[-0.318E+02,-0.205E+02]  d Ewald  = 0.1195794E+03-0.146E+03

[...]

 d Force =-0.3818367E-02[-0.419E-02,-0.345E-02]  d Energy = 0.1053668E-02-0.487E-02
 d Force =-0.5889629E+00[-0.591E+00,-0.587E+00]  d Ewald  = 0.2096377E+01-0.269E+01

[...]

 d Force =-0.1746070E-02[-0.182E-02,-0.167E-02]  d Energy = 0.5969454E-04-0.181E-02
 d Force =-0.2368159E+00[-0.237E+00,-0.236E+00]  d Ewald  = 0.8378954E+00-0.107E+01

[...]

 d Force = 0.3293710E-01[ 0.261E-01, 0.398E-01]  d Energy = 0.7549757E-01-0.426E-01
 d Force = 0.4396334E+01[ 0.430E+01, 0.449E+01]  d Ewald  = 0.4052951E+02-0.361E+02

 Conjugate gradient step on ions:
 trial-energy change:   -0.075498  1 .order   -0.075579   -0.099591   -0.051566
  (g-gl).g = 0.106E+00      g.g   = 0.111E+00  gl.gl    = 0.108E+02
 g(Force)  = 0.395E-01   g(Stress)= 0.713E-01 ortho     = 0.456E-02
 gamma     =   0.00984
 trial     =   0.89840
 opt step  =   1.86307  (harmonic =   1.86307) maximal distance =0.02438041
 next E    =   -87.770625   (d E  =  -0.10326)

[...]

 d Force =-0.6570353E-03[-0.669E-03,-0.645E-03]  d Energy = 0.9975639E-04-0.757E-03
 d Force =-0.2222844E+00[-0.223E+00,-0.222E+00]  d Ewald  =-0.2206634E+01 0.198E+01

[...]

 Conjugate gradient step on ions:
 trial-energy change:   -0.003331  1 .order   -0.003375   -0.008912    0.002163
  (g-gl).g = 0.116E-01      g.g   = 0.831E-02  gl.gl    = 0.111E+00
 g(Force)  = 0.443E-02   g(Stress)= 0.388E-02 ortho     =-0.663E-03
 gamma     =   0.10435
 trial     =   1.08165
 opt step  =   0.86632  (harmonic =   0.87042) maximal distance =0.00458665
 next E    =   -87.773378   (d E  =  -0.00355)

[...]

 d Force = 0.1239559E-03[-0.473E-04, 0.295E-03]  d Energy = 0.1899213E-03-0.660E-04
 d Force =-0.3496978E+00[-0.351E+00,-0.349E+00]  d Ewald  = 0.8537599E+00-0.120E+01

[...]

 d Force = 0.1288947E-02[ 0.116E-02, 0.142E-02]  d Energy = 0.1502992E-02-0.214E-03
 d Force =-0.1663263E+00[-0.168E+00,-0.164E+00]  d Ewald  = 0.2207600E+00-0.387E+00

[...]

 d Force = 0.1537853E-02[ 0.101E-02, 0.207E-02]  d Energy = 0.1665452E-02-0.128E-03
 d Force =-0.3084664E+00[-0.315E+00,-0.302E+00]  d Ewald  = 0.3869592E+00-0.695E+00

[...]

 d Force =-0.8641110E-04[-0.218E-02, 0.201E-02]  d Energy =-0.2862466E-03 0.200E-03
 d Force =-0.6574369E+00[-0.684E+00,-0.631E+00]  d Ewald  = 0.7417923E+00-0.140E+01

[...]

 d Force = 0.4838913E-03[-0.388E-03, 0.136E-02]  d Energy = 0.7690960E-03-0.285E-03
 d Force = 0.4127967E+00[ 0.403E+00, 0.423E+00]  d Ewald  =-0.4557064E+00 0.869E+00

[...]

 d Force = 0.8144683E-03[ 0.589E-03, 0.104E-02]  d Energy = 0.8076392E-03 0.683E-05
 d Force =-0.3270361E+00[-0.329E+00,-0.325E+00]  d Ewald  =-0.2230180E+01 0.190E+01

 Conjugate gradient step on ions:
 trial-energy change:   -0.000808  1 .order   -0.000837   -0.001144   -0.000530
  (g-gl).g = 0.597E-03      g.g   = 0.645E-03  gl.gl    = 0.157E-02
 g(Force)  = 0.550E-03   g(Stress)= 0.949E-04 ortho     = 0.795E-04
 gamma     =   0.37999
 trial     =   1.69317
 opt step  =   3.15676  (harmonic =   3.15676) maximal distance =0.00688131
 next E    =   -87.778070   (d E  =  -0.00107)

[...]

 d Force = 0.2785808E-03[ 0.174E-03, 0.383E-03]  d Energy = 0.4476222E-03-0.169E-03
 d Force =-0.3573624E+00[-0.359E+00,-0.356E+00]  d Ewald  =-0.1753086E+00-0.182E+00

[...]

 d Force = 0.1946283E-04[-0.849E-04, 0.124E-03]  d Energy = 0.8477355E-04-0.653E-04
 d Force =-0.2564067E+00[-0.257E+00,-0.256E+00]  d Ewald  =-0.1263196E+00-0.130E+00

 real space projection operators:
  max/ min on nodes  :       1401.21       1300.23

[...]

 eigenvalue-minimisations  :  7752
 total energy-change (2. order) : 0.3004375E-05  (-0.9387068E-06)
 number of electron     144.0000023 magnetization
 augmentation part      -24.7085687 magnetization

 Broyden mixing:
  rms(total) = 0.28294E-03    rms(broyden)= 0.28294E-03
  rms(prec ) = 0.33797E-03
  weight for this iteration     100.00

 eigenvalues of (default mixing * dielectric matrix)
  average eigenvalue GAMMA=   1.7104
  1.0259  2.3612  1.7439

[...]

--------------------------------------- Iteration     19(   5)  ---------------------------------------

 BZINTS: Fermi energy:  2.703295;144.000000 electrons
         Band energy:***********;  BLOECHL correction:  0.000000

 eigenvalue-minimisations  :  4016
 total energy-change (2. order) :-0.2011438E-07  (-0.4289817E-07)
 number of electron     144.0000023 magnetization
 augmentation part      -24.7085687 magnetization

 Free energy of the ion-electron system (eV)
  alpha Z        PSCENC =       559.51892542
  Ewald energy   TEWEN  =     -6340.81804178
  -Hartree energ DENC   =      -917.64993955
  -exchange      EXHF   =         0.00000000
  -V(xc)+E(xc)   XCENC  =        72.30121774
  PAW double counting   =      4077.29870171    -3834.39820734
  entropy T*S    EENTRO =         0.00000000
  eigenvalues    EBANDS =     -1021.51301841
  atomic energy  EATOM  =      7317.48149664
  Solvation  Ediel_sol  =         0.00000000
  free energy    TOTEN  =       -87.77886557 eV

  energy without entropy =      -87.77886557  energy(sigma->0) =      -87.77886557

 average (electrostatic) potential at core
  the test charge radii are     1.2192  1.1631
  (the norm of the test charge is              1.0000)
       1 -38.9844       2 -38.9844       3 -38.9844       4 -38.9844       5 -39.0460
       6 -39.0459       7 -39.0459       8 -39.0459       9 -34.9442      10 -34.9442
      11 -34.9442      12 -34.9442      13 -34.9442      14 -34.9442      15 -34.9442
      16 -34.9442      17 -34.9935      18 -34.9935      19 -34.9935      20 -34.9935
      21 -34.8584      22 -34.8584      23 -34.8584      24 -34.8584

 E-fermi :   2.7033     XC(G=0):  -8.8138     alpha+bet : -9.1401

[...]

 k-point    36 :       0.4000    0.5000    0.5000
  band No.  band energies     occupation
      1     -25.3020      2.00000
      2     -25.3020      2.00000
      3     -25.3020      2.00000
      4     -25.3020      2.00000
      5     -25.2680      2.00000
      6     -25.2680      2.00000
      7     -25.2661      2.00000
      8     -25.2661      2.00000
      9     -10.8068      2.00000
     10     -10.8068      2.00000
     11     -10.7864      2.00000
     12     -10.7864      2.00000
     13     -10.7517      2.00000
     14     -10.7517      2.00000
     15     -10.7363      2.00000
     16     -10.7363      2.00000
     17     -10.6390      2.00000
     18     -10.6390      2.00000
     19     -10.5912      2.00000
     20     -10.5912      2.00000
     21     -10.5500      2.00000
     22     -10.5500      2.00000
     23     -10.5486      2.00000
     24     -10.5486      2.00000
     25     -10.5075      2.00000
     26     -10.5075      2.00000
     27     -10.4952      2.00000
     28     -10.4952      2.00000
     29     -10.4833      2.00000
     30     -10.4833      2.00000
     31     -10.4807      2.00000
     32     -10.4807      2.00000
     33      -7.9621      2.00000
     34      -7.9621      2.00000
     35      -7.9605      2.00000
     36      -7.9605      2.00000
     37      -4.4088      2.00000
     38      -4.4088      2.00000
     39      -4.3102      2.00000
     40      -4.3102      2.00000
     41      -4.0931      2.00000
     42      -4.0931      2.00000
     43      -4.0640      2.00000
     44      -4.0640      2.00000
     45      -3.9110      2.00000
     46      -3.9110      2.00000
     47      -3.8446      2.00000
     48      -3.8446      2.00000
     49       0.1951      2.00000
     50       0.1951      2.00000
     51       0.2909      2.00000
     52       0.2909      2.00000
     53       0.6462      2.00000
     54       0.6462      2.00000
     55       0.7721      2.00000
     56       0.7721      2.00000
     57       1.0188      2.00000
     58       1.0188      2.00000
     59       1.1731      2.00000
     60       1.1731      2.00000
[...]
     74       3.2422      0.00000
     75       3.4132      0.00000
     76       3.4132      0.00000
     77       3.5621      0.00000
     78       3.5621      0.00000
     79       3.7904      0.00000
     80       3.7904      0.00000
     81       4.3244      0.00000
     82       4.3244      0.00000
     83       4.4374      0.00000
     84       4.4374      0.00000
     85       4.7550      0.00000
     86       4.7550      0.00000
     87       4.7970      0.00000
     88       4.7970      0.00000

 soft charge-density along one line, spin component           1
         0         1         2         3         4         5         6         7         8         9
 total charge-density along one line

------------------------ aborting loop because EDIFF is reached ----------------------------------------

  FORCE on cell =-STRESS in cart. coord.  units (eV):
  Direction    XX          YY          ZZ          XY          YZ          ZX
  Alpha Z   559.51893   559.51893   559.51893
  Ewald   -2125.67091 -2110.25943 -2104.90535    -0.00000    -0.00000    -0.00012
  Hartree   297.36532   311.18750   309.09686     0.00000    -0.00000     0.00001
  E(xc)    -489.55355  -489.19336  -489.20567    -0.00000    -0.00000    -0.00000
  Local     198.39282   174.98969   173.14272     0.00000    -0.00000     0.00007
  n-local     8.56128     6.05648     6.54181    -0.16299    -0.05115    -0.05679
  augment   -46.40758   -45.87440   -45.92492    -0.00000    -0.00000    -0.00000
  Kinetic  1597.76603  1593.48914  1591.82564     0.72291    -0.95740     0.08418
  Fock        0.00000     0.00000     0.00000     0.00000     0.00000     0.00000
  Total      -0.02765    -0.08546     0.09003     0.00000     0.00000     0.00000
  in kB      -0.06009    -0.18571     0.19563     0.00000     0.00000     0.00000

 VOLUME and BASIS-vectors are now :
  energy-cutoff  :      500.00
  volume of cell :      737.30
      direct lattice vectors                 reciprocal lattice vectors
     9.170781702 -0.000000000  0.000000000     0.109041959 -0.000000000  0.000000000
     0.000000000  6.872859655  0.000000000     0.000000000  0.145499843  0.000000000
     0.000000000  0.000000000 11.697716614     0.000000000  0.000000000  0.085486769

  length of vectors
     9.170781702  6.872859655 11.697716614     0.109041959  0.145499843  0.085486769

 FORCES acting on ions
    electron-ion (+dipol)            ewald-force                    non-local-force                 convergence-correction
   0.226E+01 0.824E-04 0.726E+01   -.255E+01 0.136E-04 -.770E+01   0.289E+00 0.379E-18 0.439E+00   0.353E-04 -.520E-09 -.810E-04
   -.226E+01 0.675E-05 -.726E+01   0.255E+01 -.190E-04 0.770E+01   -.289E+00 0.246E-18 -.439E+00   -.353E-04 -.633E-09 0.810E-04
   -.226E+01 0.271E-05 0.726E+01   0.255E+01 -.190E-04 -.770E+01   -.289E+00 0.129E-17 0.439E+00   -.353E-04 -.788E-09 -.810E-04
   0.226E+01 0.783E-04 -.726E+01   -.255E+01 0.136E-04 0.770E+01   0.289E+00 0.456E-18 -.439E+00   0.353E-04 -.675E-09 0.810E-04
   -.212E+02 0.493E-05 -.431E+01   0.204E+02 -.173E-04 0.436E+01   0.847E+00 0.105E-19 -.439E-01   -.288E-04 -.392E-09 -.184E-03
   0.212E+02 0.799E-04 0.431E+01   -.204E+02 0.165E-04 -.436E+01   -.847E+00 -.155E-18 0.439E-01   0.288E-04 -.547E-10 0.184E-03
   0.212E+02 0.795E-04 -.432E+01   -.204E+02 0.165E-04 0.436E+01   -.847E+00 -.178E-17 -.439E-01   0.288E-04 -.102E-09 -.184E-03
   -.212E+02 0.456E-05 0.431E+01   0.204E+02 -.173E-04 -.436E+01   0.847E+00 -.191E-17 0.439E-01   -.288E-04 -.440E-09 0.184E-03
   0.563E+01 0.188E+02 -.107E+02   -.629E+01 -.204E+02 0.116E+02   0.656E+00 0.159E+01 -.890E+00   -.203E-05 0.548E-04 -.269E-04
   -.563E+01 -.188E+02 0.107E+02   0.629E+01 0.204E+02 -.116E+02   -.656E+00 -.159E+01 0.890E+00   0.203E-05 -.548E-04 0.269E-04
   -.563E+01 -.188E+02 -.107E+02   0.629E+01 0.204E+02 0.116E+02   -.656E+00 -.159E+01 -.890E+00   0.203E-05 -.548E-04 -.270E-04
   0.563E+01 0.188E+02 0.107E+02   -.629E+01 -.204E+02 -.116E+02   0.656E+00 0.159E+01 0.890E+00   -.203E-05 0.548E-04 0.270E-04
   -.563E+01 0.188E+02 0.107E+02   0.629E+01 -.204E+02 -.116E+02   -.656E+00 0.159E+01 0.890E+00   0.203E-05 0.548E-04 0.269E-04
   0.563E+01 -.188E+02 -.107E+02   -.629E+01 0.204E+02 0.116E+02   0.656E+00 -.159E+01 -.890E+00   -.203E-05 -.548E-04 -.269E-04
   0.563E+01 -.188E+02 0.107E+02   -.629E+01 0.204E+02 -.116E+02   0.656E+00 -.159E+01 0.890E+00   -.202E-05 -.548E-04 0.270E-04
   -.563E+01 0.188E+02 -.107E+02   0.629E+01 -.204E+02 0.116E+02   -.656E+00 0.159E+01 -.890E+00   0.203E-05 0.548E-04 -.270E-04
   0.305E+02 -.101E-04 0.193E+01   -.325E+02 -.781E-05 -.228E+01   0.199E+01 0.141E-17 0.354E+00   -.123E-03 0.176E-09 0.326E-04
   -.305E+02 0.502E-05 -.193E+01   0.325E+02 0.791E-05 0.228E+01   -.199E+01 -.330E-18 -.354E+00   0.123E-03 0.207E-09 -.326E-04
   -.305E+02 0.111E-04 0.193E+01   0.325E+02 0.791E-05 -.228E+01   -.199E+01 0.208E-17 0.354E+00   0.123E-03 0.893E-10 0.326E-04
   0.305E+02 -.403E-05 -.193E+01   -.325E+02 -.781E-05 0.228E+01   0.199E+01 -.120E-17 -.354E+00   -.123E-03 0.573E-10 -.326E-04
   0.260E+01 0.174E-05 0.212E+02   -.298E+01 0.846E-05 -.231E+02   0.385E+00 -.873E-18 0.190E+01   -.480E-05 0.546E-10 0.120E-04
   -.260E+01 -.132E-04 -.212E+02   0.298E+01 -.898E-05 0.231E+02   -.385E+00 -.119E-17 -.190E+01   0.480E-05 -.828E-10 -.120E-04
   -.260E+01 -.200E-06 0.212E+02   0.298E+01 -.898E-05 -.231E+02   -.385E+00 -.505E-18 0.190E+01   0.480E-05 -.414E-09 0.120E-04
   0.260E+01 0.147E-04 -.212E+02   -.298E+01 0.846E-05 0.231E+02   0.385E+00 -.214E-18 -.190E+01   -.480E-05 -.276E-09 -.120E-04
   -.322E-03 0.469E-03 0.120E-03   0.488E-14 -.227E-13 -.711E-14   0.222E-15 -.820E-18 -.444E-15   -.162E-08 -.356E-08 0.121E-08

 POSITION                                       TOTAL-FORCE (eV/Angst)
      0.13848      1.71821      8.08205         0.001074     -0.000000      0.006925
      9.03230      5.15464      3.61566        -0.001074     -0.000000     -0.006925
      4.44691      5.15464      2.23319        -0.001074      0.000000      0.006925
      4.72387      1.71821      9.46452         0.001074     -0.000000     -0.006925
      1.42861      5.15464     10.61132        -0.004514     -0.000000     -0.003086
      7.74217      1.71821      1.08640         0.004514      0.000000      0.003086
      3.15678      1.71821      4.76246         0.004514     -0.000000     -0.003086
      6.01400      5.15464      6.93526        -0.004514      0.000000      0.003086
      1.75743      0.41577      1.75500         0.000486     -0.007275      0.001828
      7.41335      6.45709      9.94272        -0.000486      0.007275     -0.001828
      2.82796      6.45709      7.60386        -0.000486      0.007275      0.001828
      6.34282      0.41577      4.09386         0.000486     -0.007275     -0.001828
      7.41335      3.85220      9.94272        -0.000486     -0.007275     -0.001828
      1.75743      3.02066      1.75500         0.000486      0.007275      0.001828
      6.34282      3.02066      4.09386         0.000486      0.007275     -0.001828
      2.82796      3.85220      7.60386        -0.000486     -0.007275      0.001828
      0.66077      5.15464      6.94362         0.000910     -0.000000     -0.001919
      8.51001      1.71821      4.75410        -0.000910      0.000000      0.001919
      3.92462      1.71821      1.09476        -0.000910      0.000000     -0.001919
      5.24616      5.15464     10.60296         0.000910     -0.000000      0.001919
      1.77891      1.71821     11.19877         0.004021      0.000000      0.009057
      7.39187      5.15464      0.49895        -0.004021     -0.000000     -0.009057
      2.80648      5.15464      5.34991        -0.004021     -0.000000      0.009057
      6.36431      1.71821      6.34780         0.004021      0.000000     -0.009057
    total drift:                               -0.000322      0.000469      0.000120

  FREE ENERGIE OF THE ION-ELECTRON SYSTEM (eV)
  free  energy   TOTEN  =       -87.77886557 eV

  energy  without entropy=      -87.77886557  energy(sigma->0) =      -87.77886557

 d Force = 0.2315427E-03[ 0.852E-04, 0.378E-03]  d Energy = 0.2863981E-03-0.549E-04
 d Force = 0.4419262E-01[ 0.438E-01, 0.446E-01]  d Ewald  = 0.3101633E-01 0.132E-01

 Conjugate gradient step on ions:
 trial-energy change:   -0.000286  1 .order   -0.000297   -0.000486   -0.000109
  (g-gl).g = 0.139E-03      g.g   = 0.465E-03  gl.gl    = 0.739E-03
 g(Force)  = 0.373E-03   g(Stress)= 0.919E-04 ortho     =-0.808E-04
 gamma     =   0.18806
 trial     =   1.08137
 opt step  =   1.49254  (harmonic =   1.39246) maximal distance =0.00199933
 next E    =   -87.778886   (d E  =  -0.00031)

 reached required accuracy - stopping structural energy minimisation
 writing wavefunctions
 BZINTS: Fermi energy:  2.703295;144.000000 electrons
         Band energy:***********;  BLOECHL correction:  0.000000