 vasp.5.4.4.18Apr17-6-g9f103f2a35 (build Nov 21 2017 15:30:27) complex

 executed on             LinuxIFC date 2020.09.15  08:10:42

 INCAR:
 POTCAR:   PAW_PBE Ba_sv 06Sep2000
 POTCAR:   PAW_PBE Si 05Jan2001

 POTCAR:   PAW_PBE Ba_sv 06Sep2000
   VRHFIN =Ba: 5s5p6s

   TITEL  = PAW_PBE Ba_sv 06Sep2000
   POMASS =  137.327; ZVAL   =   10.000    mass and valenz
   ENMAX  =  187.210; ENMIN  =  140.408 eV
   QCUT   =   -3.709; QGAM   =    7.419    optimization parameters

   Description
     l     E      TYP  RCUT    TYP  RCUT
     0   .000     23  2.800
     0   .000     23  2.800
     1   .000     23  2.700
     1  2.000     23  2.700
     2   .000     23  2.700
     2   .000     23  2.700

 POTCAR:   PAW_PBE Si 05Jan2001
   VRHFIN =Si: s2p2

   TITEL  = PAW_PBE Si 05Jan2001
   POMASS =   28.085; ZVAL   =    4.000    mass and valenz
   ENMAX  =  245.345; ENMIN  =  184.009 eV
   QCUT   =   -4.246; QGAM   =    8.493    optimization parameters

   Description
     l     E      TYP  RCUT    TYP  RCUT
     0   .000     23  1.900
     0   .000     23  1.900
     1   .000     23  1.900
     1   .000     23  1.900
     2   .000      7  1.900

 Optimization of the real space projectors (new method)

 maximal supplied QI-value         = 13.42
 optimisation between [QCUT,QGAM] = [ 11.40, 22.81] = [ 36.42,145.68] Ry
 Optimized for a Real-space Cutoff    1.56 Angstroem

   l    n(q)    QCUT    max X(q) W(low)/X(q) W(high)/X(q)  e(spline)
   0     11    11.404     7.198    0.14E-04    0.26E-04    0.99E-07
   0     11    11.404    15.603    0.29E-04    0.72E-04    0.44E-06
   1     10    11.404     3.746    0.20E-04    0.24E-04    0.43E-07
   1     10    11.404     4.362    0.22E-03    0.97E-04    0.22E-06
   2     10    11.404     5.782    0.83E-04    0.62E-05    0.27E-06
   2     10    11.404    65.505    0.42E-03    0.31E-04    0.12E-05
 Optimization of the real space projectors (new method)

 maximal supplied QI-value         = 19.84
 optimisation between [QCUT,QGAM] = [ 11.31, 22.82] = [ 35.82,145.81] Ry
 Optimized for a Real-space Cutoff    1.16 Angstroem

   l    n(q)    QCUT    max X(q) W(low)/X(q) W(high)/X(q)  e(spline)
   0      8    11.310     8.708    0.14E-04    0.11E-04    0.43E-08
   0      8    11.310   106.241    0.27E-03    0.30E-03    0.38E-07
   1      7    11.310     5.901    0.82E-05    0.48E-04    0.19E-07
   1      7    11.310    73.241    0.27E-03    0.27E-03    0.74E-07
 PAW_PBE Ba_sv 06Sep2000                :
 PAW_PBE Si 05Jan2001                   :

 POSCAR: ba8 si16
  positions in direct lattice
  velocities in cartesian coordinates
 exchange correlation table for  LEXCH =        8
   RHO(1)=    0.500       N(1)  =     2000
   RHO(2)=  100.500       N(2)  =     4000

 ion  position               nearest neighbor table
   1  0.006  0.250  0.705-  21 3.40  16 3.45  11 3.45  17 3.65  17 3.65   5 4.38   5 4.38   7 4.62

   2  0.380  0.750  0.295-  22 3.40  12 3.45  15 3.45  18 3.65  18 3.65   6 4.38   6 4.38   8 4.62

   3  0.182  0.750  0.186-  20 3.32   9 3.45  14 3.45  12 3.54  15 3.54  22 3.55  19 3.65  19 3.65
                            23 3.76   5 4.28   7 4.38   7 4.38
   4  0.204  0.250  0.814-  19 3.32  13 3.45  10 3.45  16 3.54  11 3.54  21 3.55  20 3.65  20 3.65
                            24 3.76   6 4.28   8 4.38   8 4.38
   5  0.060  0.750  0.917-   9 3.44  14 3.44  21 3.45  21 3.45  11 3.48  16 3.48  17 3.74   3 4.28
                             1 4.38   1 4.38
   6  0.326  0.250  0.083-  13 3.44  10 3.44  22 3.45  22 3.45  15 3.48  12 3.48  18 3.74   4 4.28
                             2 4.38   2 4.38
   7  0.128  0.250  0.397-  14 3.44   9 3.44  23 3.53  23 3.53  15 3.70  12 3.70  19 3.71  16 3.76
                            11 3.76  24 3.76   3 4.38   3 4.38   1 4.62
   8  0.258  0.750  0.603-  10 3.44  13 3.44  24 3.53  24 3.53  11 3.70  16 3.70  20 3.71  12 3.76
                            15 3.76  23 3.76   4 4.38   4 4.38   2 4.62
   9  0.073  0.073  0.144-  14 2.40  21 2.43  19 2.44   5 3.44   7 3.44   3 3.45
  10  0.313  0.927  0.856-  13 2.40  22 2.43  20 2.44   6 3.44   8 3.44   4 3.45
  11  0.115  0.928  0.659-  16 2.42  23 2.43  17 2.44   1 3.45   5 3.48   4 3.54   8 3.70   7 3.76

[...]

  17  0.031  0.750  0.600-  23 2.44  11 2.44  16 2.44   1 3.65   1 3.65   5 3.74
  18  0.355  0.250  0.400-  24 2.44  15 2.44  12 2.44   2 3.65   2 3.65   6 3.74
  19  0.157  0.250  0.083-  21 2.43  14 2.44   9 2.44   4 3.32   3 3.65   3 3.65   7 3.71
  20  0.229  0.750  0.917-  22 2.43  10 2.44  13 2.44   3 3.32   4 3.65   4 3.65   8 3.71
  21  0.074  0.250  0.962-  19 2.43  14 2.43   9 2.43   1 3.40   5 3.45   5 3.45   4 3.55
  22  0.311  0.750  0.038-  20 2.43  10 2.43  13 2.43   2 3.40   6 3.45   6 3.45   3 3.55
  23  0.113  0.750  0.477-  11 2.43  16 2.43  17 2.44   7 3.53   7 3.53   3 3.76   8 3.76
  24  0.272  0.250  0.523-  15 2.43  12 2.43  18 2.44   8 3.53   8 3.53   4 3.76   7 3.76

  LATTYP: Found a simple orthorhombic cell.
 ALAT       =     6.7778496742
 B/A-ratio  =     1.7117734747
 C/A-ratio  =     3.5423429602

  Lattice vectors:

 A1 = (   0.0000000000,   6.7778496742,   0.0000000000)
 A2 = (   0.0000000000,   0.0000000000, -11.6021432877)
 A3 = ( -24.0094680786,   0.0000000000,   0.0000000000)

Analysis of symmetry for initial positions (statically):
 Subroutine PRICEL returns:
 Original cell was already a primitive cell.

 Routine SETGRP: Setting up the symmetry group for a
 simple orthorhombic supercell.

 Subroutine GETGRP returns: Found  4 space group operations
 (whereof  1 operations were pure point group operations)
 out of a pool of  8 trial point group operations.

The static configuration has the point symmetry C_1 .
 The point group associated with its full space group is C_2h.

Analysis of symmetry for dynamics (positions and initial velocities):
 Subroutine PRICEL returns:
 Original cell was already a primitive cell.

[...]

The dynamic configuration has the point symmetry C_1 .
 The point group associated with its full space group is C_2h.

Analysis of constrained symmetry for selective dynamics:
 Subroutine PRICEL returns:
 Original cell was already a primitive cell.

 Routine SETGRP: Setting up the symmetry group for a
 simple orthorhombic supercell.

 Subroutine GETGRP returns: Found  4 space group operations
 (whereof  1 operations were pure point group operations)
 out of a pool of  8 trial point group operations.

The constrained configuration has the point symmetry C_1 .
 The point group associated with its full space group is C_2h.

 Subroutine INISYM returns: Found  4 space group operations
 (whereof  1 operations are pure point group operations),
 and found     1 'primitive' translations

 KPOINTS: k-density: 8.0

Automatic generation of k-mesh.
Space group operators:
 irot       det(A)        alpha          n_x          n_y          n_z        tau_x        tau_y        tau_z
    1     1.000000     0.000000     1.000000     0.000000     0.000000     0.000000     0.000000     0.000000
    2    -1.000000     0.000000     1.000000     0.000000     0.000000    -0.614341     0.000000     0.000000
    3     1.000000   180.000000     0.000000     1.000000     0.000000    -0.614341     0.500000     0.000000
    4    -1.000000   180.000000     0.000000     1.000000     0.000000     0.000000     0.500000     0.000000

 Subroutine IBZKPT returns following result:

 Found     15 irreducible k-points:

 Following reciprocal coordinates:
            Coordinates               Weight
  0.000000  0.000000  0.000000      1.000000
  0.000000  0.125000  0.000000      2.000000
  0.000000  0.250000  0.000000      2.000000
  0.000000  0.375000  0.000000      2.000000
  0.000000  0.500000  0.000000      1.000000
  0.000000  0.000000  0.200000      2.000000
  0.000000  0.125000  0.200000      4.000000
  0.000000  0.250000  0.200000      4.000000
  0.000000  0.375000  0.200000      4.000000
  0.000000  0.500000  0.200000      2.000000
  0.000000  0.000000  0.400000      2.000000
  0.000000  0.125000  0.400000      4.000000
  0.000000  0.250000  0.400000      4.000000
  0.000000  0.375000  0.400000      4.000000
  0.000000  0.500000  0.400000      2.000000

 Following cartesian coordinates:
            Coordinates               Weight
  0.000000  0.000000  0.000000      1.000000
  0.000000  0.018442  0.000000      2.000000
  0.000000  0.036885  0.000000      2.000000
  0.000000  0.055327  0.000000      2.000000
  0.000000  0.073770  0.000000      1.000000
  0.000000  0.000000  0.017238      2.000000
  0.000000  0.018442  0.017238      4.000000
  0.000000  0.036885  0.017238      4.000000
  0.000000  0.055327  0.017238      4.000000
  0.000000  0.073770  0.017238      2.000000
  0.000000  0.000000  0.034476      2.000000
  0.000000  0.018442  0.034476      4.000000
  0.000000  0.036885  0.034476      4.000000
  0.000000  0.055327  0.034476      4.000000
  0.000000  0.073770  0.034476      2.000000

 TETIRR: Found    108 inequivalent tetrahedra from      240

 SYSTEM =  unknown system
 POSCAR =  ba8 si16

 Startparameter for this run:
   NWRITE =      2    write-flag & timer
   PREC   = normal    normal or accurate (medium, high low for compatibility)
   ISTART =      0    job   : 0-new  1-cont  2-samecut
   ICHARG =      2    charge: 1-file 2-atom 10-const
   ISPIN  =      1    spin polarized calculation?
   LNONCOLLINEAR =      F non collinear calculations
   LSORBIT =      F    spin-orbit coupling
   INIWAV =      1    electr: 0-lowe 1-rand  2-diag
   LASPH  =      F    aspherical Exc in radial PAW
   METAGGA=      F    non-selfconsistent MetaGGA calc.

 Electronic Relaxation 1
   ENCUT  =  500.0 eV  36.75 Ry    6.06 a.u.  43.77 12.36 21.15*2*pi/ulx,y,z
   ENINI  =  500.0     initial cutoff
   ENAUG  =  351.2 eV  augmentation charge cutoff
   NELM   =    100;   NELMIN=  2; NELMDL= -5     # of ELM steps
   EDIFF  = 0.1E-05   stopping-criterion for ELM
   LREAL  =      T    real-space projection
   NLSPLINE    = F    spline interpolate recip. space projectors
   LCOMPAT=      F    compatible to vasp.4.4
   GGA_COMPAT  = T    GGA compatible to vasp.4.4-vasp.4.6
   LMAXPAW     = -100 max onsite density
   LMAXMIX     =    2 max onsite mixed and CHGCAR
   VOSKOWN=      0    Vosko Wilk Nusair interpolation
   ROPT   =   -0.00050  -0.00050
 Ionic relaxation
   EDIFFG = -.1E-02   stopping-criterion for IOM
   NSW    =      0    number of steps for IOM
   NBLOCK =      1;   KBLOCK =      1    inner block; outer block
   IBRION =     -1    ionic relax: 0-MD 1-quasi-New 2-CG
   NFREE  =      0    steps in history (QN), initial steepest desc. (CG)
   ISIF   =      2    stress and relaxation
   IWAVPR =     10    prediction:  0-non 1-charg 2-wave 3-comb
   ISYM   =      2    0-nonsym 1-usesym 2-fastsym
   LCORR  =      T    Harris-Foulkes like correction to forces

   POTIM  = 0.3000    time-step for ionic-motion
   TEIN   =    0.0    initial temperature
   TEBEG  =    0.0;   TEEND  =   0.0 temperature during run
   SMASS  =  -3.00    Nose mass-parameter (am)
   estimated Nose-frequenzy (Omega)   =  0.10E-29 period in steps =****** mass=  -0.132E-25a.u.
   SCALEE = 1.0000    scale energy and forces
[...]

 BZINTS: Fermi energy:  7.044564;144.000000 electrons
         Band energy:-462.721460;  BLOECHL correction: -0.027490

 eigenvalue-minimisations  :  2768
 total energy-change (2. order) : 0.1187320E+04  (-0.4783735E+04)
 number of electron     144.0000000 magnetization
 augmentation part      144.0000000 magnetization

 Free energy of the ion-electron system (eV)
  alpha Z        PSCENC =       170.45750602
  Ewald energy   TEWEN  =     11814.89920149
  -Hartree energ DENC   =    -17930.07650838
  -exchange      EXHF   =         0.00000000
  -V(xc)+E(xc)   XCENC  =        42.24214100
  PAW double counting   =      3692.15173346    -3390.49189382
  entropy T*S    EENTRO =         0.00000000
  eigenvalues    EBANDS =      -462.72145980
  atomic energy  EATOM  =      7250.85976021
  Solvation  Ediel_sol  =         0.00000000
  free energy    TOTEN  =      1187.32048017 eV

  energy without entropy =     1187.32048017  energy(sigma->0) =     1187.32048017

[...]

 eigenvalue-minimisations  :  3808
 total energy-change (2. order) :-0.1126754E+04  (-0.1097702E+04)
 number of electron     144.0000000 magnetization
 augmentation part      144.0000000 magnetization

[...]

 Broyden mixing:
  rms(total) = 0.91307E+00    rms(broyden)= 0.91306E+00
  rms(prec ) = 0.11907E+01
  weight for this iteration     100.00

[...]

 eigenvalues of (default mixing * dielectric matrix)
  average eigenvalue GAMMA=   1.5412
  1.5412

[...]

 eigenvalue-minimisations  :  3128
 total energy-change (2. order) : 0.8678951E-02  (-0.6839338E-02)
 number of electron     143.9999993 magnetization
 augmentation part      -17.6548404 magnetization

[...]

 Broyden mixing:
  rms(total) = 0.62658E-05    rms(broyden)= 0.62658E-05
  rms(prec ) = 0.91593E-05
  weight for this iteration     100.00

 eigenvalues of (default mixing * dielectric matrix)
  average eigenvalue GAMMA=   2.3304
  9.1083  6.9907  4.0610  3.6945  3.0111  2.5042  1.8909  1.8909  0.9085  0.9085
  1.4563  1.4563  1.2267  1.2267  1.1632  1.1632  0.9674  0.9674  0.9550  1.0574

[...]

--------------------------------------- Iteration      1(  26)  ---------------------------------------

 BZINTS: Fermi energy: -0.392885;144.000000 electrons
         Band energy:***********;  BLOECHL correction:  0.000000

 eigenvalue-minimisations  :  1928
 total energy-change (2. order) :-0.1640092E-06  (-0.4702607E-08)
 number of electron     143.9999993 magnetization
 augmentation part      -17.6533746 magnetization

 Free energy of the ion-electron system (eV)
  alpha Z        PSCENC =       170.45750602
  Ewald energy   TEWEN  =     11814.89920149
  -Hartree energ DENC   =    -18243.47423291
  -exchange      EXHF   =         0.00000000
  -V(xc)+E(xc)   XCENC  =        49.49903975
  PAW double counting   =      3825.86483715    -3539.62702986
  entropy T*S    EENTRO =         0.00000000
  eigenvalues    EBANDS =     -1433.53781691
  atomic energy  EATOM  =      7250.85976021
  Solvation  Ediel_sol  =         0.00000000
  free energy    TOTEN  =      -105.05873506 eV

  energy without entropy =     -105.05873506  energy(sigma->0) =     -105.05873506

 average (electrostatic) potential at core
  the test charge radii are     1.2192  0.9892
  (the norm of the test charge is              1.0000)
       1 -41.8982       2 -41.8982       3 -40.2037       4 -40.2037       5 -40.8538
       6 -40.8538       7 -40.8486       8 -40.8486       9 -88.7675      10 -88.7675
      11 -89.2002      12 -89.2002      13 -88.7675      14 -88.7675      15 -89.2002
      16 -89.2002      17 -89.2616      18 -89.2616      19 -88.7869      20 -88.7869
      21 -88.9326      22 -88.9326      23 -89.1913      24 -89.1913

 E-fermi :  -0.3929     XC(G=0):  -3.9917     alpha+bet : -3.8451

 k-point     1 :       0.0000    0.0000    0.0000
  band No.  band energies     occupation
      1     -29.5117      2.00000
      2     -29.5117      2.00000
      3     -28.4966      2.00000
      4     -28.4966      2.00000
      5     -28.4717      2.00000
      6     -28.4697      2.00000
      7     -27.8670      2.00000
      8     -27.8661      2.00000
      9     -14.8557      2.00000
     10     -14.8551      2.00000
     11     -14.7814      2.00000
     12     -14.7812      2.00000
     13     -14.7011      2.00000
     14     -14.7010      2.00000
     15     -13.9296      2.00000
     16     -13.9281      2.00000
     17     -13.8425      2.00000
     18     -13.8216      2.00000
     19     -13.7872      2.00000
     20     -13.7798      2.00000
     21     -13.7654      2.00000
     22     -13.7483      2.00000
     23     -13.7444      2.00000
     24     -13.7438      2.00000
     25     -13.7356      2.00000
     26     -13.7089      2.00000
     27     -13.2522      2.00000
     28     -13.2244      2.00000
     29     -13.1882      2.00000
     30     -13.1791      2.00000
     31     -13.1677      2.00000
     32     -13.1574      2.00000
     33     -11.0565      2.00000
     34     -11.0016      2.00000
     35     -10.6822      2.00000
     36     -10.6551      2.00000
     37      -6.3312      2.00000
     38      -6.3282      2.00000
     39      -6.1395      2.00000
     40      -6.1228      2.00000
     41      -6.1137      2.00000
     42      -6.1002      2.00000
     43      -5.9476      2.00000
     44      -5.9083      2.00000
     45      -5.7920      2.00000
     46      -5.6217      2.00000
     47      -5.6101      2.00000
     48      -5.6054      2.00000
     49      -3.4893      2.00000
     50      -3.0428      2.00000
     51      -2.5372      2.00000
     52      -2.5265      2.00000
     53      -2.4101      2.00000
     54      -2.1341      2.00000
     55      -1.9056      2.00000
     56      -1.8425      2.00000
     57      -1.7641      2.00000
     58      -1.7367      2.00000
     59      -1.7253      2.00000
     60      -1.6258      2.00000
[...]
     74       0.5174      0.00000
     75       0.6298      0.00000
     76       0.7772      0.00000
     77       0.8022      0.00000
     78       0.8966      0.00000
     79       1.0385      0.00000
     80       1.2663      0.00000
     81       1.3196      0.00000
     82       1.3478      0.00000
     83       1.4058      0.00000
     84       1.4410      0.00000
     85       1.4806      0.00000
     86       1.5402      0.00000
     87       1.6343      0.00000
     88       1.7079      0.00000

[...]

 k-point    15 :       0.0000    0.5000    0.4000
  band No.  band energies     occupation
      1     -29.5116      2.00000
      2     -29.5116      2.00000
      3     -28.4966      2.00000
      4     -28.4966      2.00000
      5     -28.4705      2.00000
      6     -28.4705      2.00000
      7     -27.8667      2.00000
      8     -27.8667      2.00000
      9     -14.8524      2.00000
     10     -14.8524      2.00000
     11     -14.7861      2.00000
     12     -14.7861      2.00000
     13     -14.7148      2.00000
     14     -14.7148      2.00000
     15     -13.9232      2.00000
     16     -13.9232      2.00000
     17     -13.8422      2.00000
     18     -13.8422      2.00000
     19     -13.7924      2.00000
     20     -13.7924      2.00000
     21     -13.7751      2.00000
     22     -13.7751      2.00000
     23     -13.7585      2.00000
     24     -13.7585      2.00000
     25     -13.7159      2.00000
     26     -13.7159      2.00000
     27     -13.2352      2.00000
     28     -13.2352      2.00000
     29     -13.1857      2.00000
     30     -13.1857      2.00000
     31     -13.1606      2.00000
     32     -13.1606      2.00000
     33     -10.9799      2.00000
     34     -10.9799      2.00000
     35     -10.6132      2.00000
     36     -10.6132      2.00000
     37      -6.4063      2.00000
     38      -6.4063      2.00000
     39      -6.1117      2.00000
     40      -6.1117      2.00000
     41      -6.0692      2.00000
     42      -6.0692      2.00000
     43      -5.7969      2.00000
     44      -5.7969      2.00000
     45      -5.7610      2.00000
     46      -5.7610      2.00000
     47      -5.6356      2.00000
     48      -5.6356      2.00000
     49      -2.6574      2.00000
     50      -2.6574      2.00000
     51      -2.5022      2.00000
     52      -2.5022      2.00000
     53      -2.1173      2.00000
     54      -2.1173      2.00000
     55      -2.0624      2.00000
     56      -2.0624      2.00000
     57      -1.8909      2.00000
     58      -1.8909      2.00000
     59      -1.6688      2.00000
     60      -1.6688      2.00000
[...]
     74       0.3501      0.00000
     75       0.5864      0.00000
     76       0.5864      0.00000
     77       0.7611      0.00000
     78       0.7611      0.00000
     79       0.9267      0.00000
     80       0.9267      0.00000
     81       1.0001      0.00000
     82       1.0001      0.00000
     83       1.3471      0.00000
     84       1.3471      0.00000
     85       1.5308      0.00000
     86       1.5308      0.00000
     87       1.6251      0.00000
     88       1.6251      0.00000

 soft charge-density along one line, spin component           1
         0         1         2         3         4         5         6         7         8         9
 total charge-density along one line

------------------------ aborting loop because EDIFF is reached ----------------------------------------

  FORCE on cell =-STRESS in cart. coord.  units (eV):
  Direction    XX          YY          ZZ          XY          YZ          ZX
  Alpha Z   170.45751   170.45751   170.45751
  Ewald  -19571.04027 15961.63673 15424.28907    -0.00002     0.00000   143.30077
  Hartree-16510.02923 17587.66590 17165.83329     0.00000    -0.00000   109.73599
  E(xc)    -461.94978  -460.08266  -460.50830    -0.00000    -0.00000     0.18280
  Local   34666.14278-34984.49768-34017.19806     0.00001    -0.00000  -251.07206
  n-local   338.83036   338.78690   339.82852     0.05857    -0.20227    -1.49073
  augment  -169.22512  -169.59762  -169.51426    -0.00000    -0.00000     0.30018
  Kinetic  1528.13482  1545.88091  1537.88507    -0.04442    -0.81970    -0.91125
  Fock        0.00000     0.00000     0.00000     0.00000     0.00000     0.00000
  Total      -8.67894    -9.75000    -8.92717     0.00000     0.00000     0.04570
  in kB      -7.36486    -8.27375    -7.57551     0.00000     0.00000     0.03878

 VOLUME and BASIS-vectors are now :
  energy-cutoff  :      500.00
  volume of cell :     1888.05
      direct lattice vectors                 reciprocal lattice vectors
    24.009468079  0.000000000  0.000000000     0.041650236  0.000000000  0.000000000
     0.000000000  6.777849674  0.000000000     0.000000000  0.147539419  0.000000000
     0.000000000  0.000000000 11.602143288     0.000000000  0.000000000  0.086190971

  length of vectors
    24.009468079  6.777849674 11.602143288     0.041650236  0.147539419  0.086190971

 FORCES acting on ions
    electron-ion (+dipol)            ewald-force                    non-local-force                 convergence-correction
   0.780E+03 0.102E-04 0.440E+02   -.775E+03 0.985E-05 -.432E+02   -.428E+01 -.612E-18 -.828E+00   0.913E-04 -.645E-09 0.639E-05
   -.780E+03 -.631E-04 -.440E+02   0.775E+03 -.128E-04 0.432E+02   0.428E+01 -.641E-18 0.828E+00   -.913E-04 0.650E-09 -.639E-05
   0.826E+02 -.605E-04 -.376E+02   -.824E+02 -.184E-04 0.363E+02   -.113E+00 0.673E-19 0.129E+01   0.808E-04 0.103E-08 -.592E-04
   -.826E+02 0.114E-04 0.376E+02   0.824E+02 0.130E-04 -.363E+02   0.113E+00 0.127E-22 -.129E+01   -.808E-04 -.991E-09 0.592E-04
   0.627E+03 -.611E-04 -.490E+02   -.625E+03 -.166E-04 0.494E+02   -.192E+01 -.199E-17 -.426E+00   0.163E-03 0.823E-09 -.531E-04
   -.627E+03 0.902E-05 0.490E+02   0.625E+03 0.144E-04 -.494E+02   0.192E+01 -.217E-17 0.426E+00   -.163E-03 -.818E-09 0.531E-04
   0.362E+03 0.118E-04 -.942E+01   -.361E+03 0.132E-04 0.863E+01   -.853E+00 0.121E-17 0.788E+00   0.140E-03 -.962E-09 0.103E-04
   -.362E+03 -.618E-04 0.942E+01   0.361E+03 -.133E-04 -.863E+01   0.853E+00 0.818E-18 -.788E+00   -.140E-03 0.916E-09 -.103E-04
   0.274E+03 0.365E+02 -.467E+02   -.274E+03 -.380E+02 0.476E+02   -.762E-01 0.152E+01 -.870E+00   0.994E-04 0.518E-04 -.464E-04
   -.274E+03 -.365E+02 0.467E+02   0.274E+03 0.380E+02 -.476E+02   0.762E-01 -.152E+01 0.870E+00   -.994E-04 -.518E-04 0.464E-04
   0.122E+03 -.326E+02 0.263E+01   -.122E+03 0.337E+02 -.161E+01   -.322E+00 -.114E+01 -.102E+01   0.368E-04 -.352E-04 -.409E-05
   -.122E+03 0.326E+02 -.263E+01   0.122E+03 -.337E+02 0.161E+01   0.322E+00 0.114E+01 0.102E+01   -.368E-04 0.352E-04 0.409E-05
   -.274E+03 0.365E+02 0.467E+02   0.274E+03 -.380E+02 -.476E+02   0.762E-01 0.152E+01 0.870E+00   -.994E-04 0.518E-04 0.464E-04
   0.274E+03 -.365E+02 -.467E+02   -.274E+03 0.380E+02 0.476E+02   -.762E-01 -.152E+01 -.870E+00   0.994E-04 -.518E-04 -.464E-04
   -.122E+03 -.326E+02 -.263E+01   0.122E+03 0.337E+02 0.161E+01   0.322E+00 -.114E+01 0.102E+01   -.368E-04 -.352E-04 0.409E-05
   0.122E+03 0.326E+02 0.263E+01   -.122E+03 -.337E+02 -.161E+01   -.322E+00 0.114E+01 -.102E+01   0.368E-04 0.352E-04 -.409E-05
   0.330E+03 -.419E-05 0.459E+02   -.332E+03 -.606E-05 -.465E+02   0.140E+01 -.461E-18 0.644E+00   0.822E-04 0.281E-09 0.231E-04
   -.330E+03 0.615E-05 -.459E+02   0.332E+03 0.630E-05 0.465E+02   -.140E+01 -.547E-18 -.644E+00   -.822E-04 -.285E-09 -.231E-04
   0.326E+02 0.942E-05 -.110E+02   -.310E+02 0.759E-05 0.103E+02   -.145E+01 -.703E-19 0.732E+00   -.156E-04 -.393E-09 -.173E-04
   -.326E+02 -.175E-05 0.110E+02   0.310E+02 -.725E-05 -.103E+02   0.145E+01 0.584E-19 -.732E+00   0.156E-04 0.372E-09 0.172E-04
   0.242E+03 0.438E-05 0.119E+02   -.242E+03 0.808E-05 -.131E+02   -.382E+00 -.237E-18 0.115E+01   0.961E-04 -.341E-09 0.368E-04
   -.242E+03 -.551E-05 -.119E+02   0.242E+03 -.813E-05 0.131E+02   0.382E+00 0.225E-19 -.115E+01   -.961E-04 0.326E-09 -.368E-04
   0.157E+03 -.616E-05 0.599E+02   -.156E+03 -.754E-05 -.616E+02   -.708E+00 -.536E-18 0.173E+01   0.448E-04 0.360E-09 0.585E-04
   -.157E+03 0.373E-05 -.599E+02   0.156E+03 0.738E-05 0.616E+02   0.708E+00 0.210E-17 -.173E+01   -.448E-04 -.358E-09 -.585E-04
   0.703E-04 -.209E-03 0.812E-04   -.853E-13 0.128E-13 -.213E-13   0.000E+00 0.333E-18 0.444E-15   -.817E-09 -.623E-10 -.447E-08

 POSITION                                       TOTAL-FORCE (eV/Angst)
      0.13670      1.69446      8.17765         0.769099     -0.000000     -0.000183
      9.12277      5.08339      3.42449        -0.769099      0.000000      0.000183
      4.36803      5.08339      2.15831         0.155318      0.000000     -0.000441
      4.89143      1.69446      9.44383        -0.155318     -0.000000      0.000441
      1.43529      5.08339     10.63635         0.676167      0.000000     -0.000385
      7.82418      1.69446      0.96579        -0.676167     -0.000000      0.000385
      3.06944      1.69446      4.60413         0.427190     -0.000000      0.000395
      6.19002      5.08339      6.99802        -0.427190     -0.000000     -0.000395
      1.75027      0.49374      1.66516        -0.153161      0.000505      0.000598
      7.50920      6.28411      9.93699         0.153161     -0.000505     -0.000598
      2.75446      6.29263      7.64948         0.146961      0.000228      0.000280
      6.50500      0.48522      3.95266        -0.146961     -0.000228     -0.000280
      7.50920      3.88267      9.93699         0.153161      0.000505     -0.000598
      1.75027      2.89518      1.66516        -0.153161     -0.000505      0.000598
      6.50500      2.90371      3.95266        -0.146961      0.000228     -0.000280
      2.75446      3.87414      7.64948         0.146961     -0.000228      0.000280
      0.74693      5.08339      6.96173        -0.243192      0.000000     -0.000262
      8.51254      1.69446      4.64042         0.243192      0.000000      0.000262
      3.75780      1.69446      0.95950         0.192610     -0.000000     -0.000961
      5.50166      5.08339     10.64264        -0.192610      0.000000      0.000961
      1.78112      1.69446     11.15596        -0.206858     -0.000000      0.000448
      7.47835      5.08339      0.44618         0.206858      0.000000     -0.000448
      2.72362      5.08339      5.53666        -0.226368     -0.000000      0.000411
      6.53585      1.69446      6.06549         0.226368      0.000000     -0.000411
    total drift:                                0.000070     -0.000209      0.000081

  FREE ENERGIE OF THE ION-ELECTRON SYSTEM (eV)
  free  energy   TOTEN  =      -105.05873506 eV

  energy  without entropy=     -105.05873506  energy(sigma->0) =     -105.05873506

 writing wavefunctions
 BZINTS: Fermi energy: -0.392885;144.000000 electrons
         Band energy:***********;  BLOECHL correction:  0.000000