 vasp.5.4.4.18Apr17-6-g9f103f2a35 (build Nov 21 2017 15:30:27) complex

 executed on             LinuxIFC date 2020.09.15  08:15:49

 INCAR:
 POTCAR:   PAW_PBE Ba_sv 06Sep2000
 POTCAR:   PAW_PBE Si 05Jan2001

 POTCAR:   PAW_PBE Ba_sv 06Sep2000
   VRHFIN =Ba: 5s5p6s

   TITEL  = PAW_PBE Ba_sv 06Sep2000
   POMASS =  137.327; ZVAL   =   10.000    mass and valenz
   ENMAX  =  187.210; ENMIN  =  140.408 eV
   QCUT   =   -3.709; QGAM   =    7.419    optimization parameters

   Description
     l     E      TYP  RCUT    TYP  RCUT
     0   .000     23  2.800
     0   .000     23  2.800
     1   .000     23  2.700
     1  2.000     23  2.700
     2   .000     23  2.700
     2   .000     23  2.700

 POTCAR:   PAW_PBE Si 05Jan2001
   VRHFIN =Si: s2p2

   TITEL  = PAW_PBE Si 05Jan2001
   POMASS =   28.085; ZVAL   =    4.000    mass and valenz
   ENMAX  =  245.345; ENMIN  =  184.009 eV
   QCUT   =   -4.246; QGAM   =    8.493    optimization parameters

   Description
     l     E      TYP  RCUT    TYP  RCUT
     0   .000     23  1.900
     0   .000     23  1.900
     1   .000     23  1.900
     1   .000     23  1.900
     2   .000      7  1.900

 Optimization of the real space projectors (new method)

 maximal supplied QI-value         = 13.42
 optimisation between [QCUT,QGAM] = [ 11.40, 22.81] = [ 36.42,145.68] Ry
 Optimized for a Real-space Cutoff    1.56 Angstroem

   l    n(q)    QCUT    max X(q) W(low)/X(q) W(high)/X(q)  e(spline)
   0     11    11.404     7.198    0.14E-04    0.26E-04    0.99E-07
   0     11    11.404    15.603    0.29E-04    0.72E-04    0.44E-06
   1     10    11.404     3.746    0.20E-04    0.24E-04    0.43E-07
   1     10    11.404     4.362    0.22E-03    0.97E-04    0.22E-06
   2     10    11.404     5.782    0.83E-04    0.62E-05    0.27E-06
   2     10    11.404    65.505    0.42E-03    0.31E-04    0.12E-05
 Optimization of the real space projectors (new method)

 maximal supplied QI-value         = 19.84
 optimisation between [QCUT,QGAM] = [ 11.31, 22.82] = [ 35.82,145.81] Ry
 Optimized for a Real-space Cutoff    1.16 Angstroem

   l    n(q)    QCUT    max X(q) W(low)/X(q) W(high)/X(q)  e(spline)
   0      8    11.310     8.708    0.14E-04    0.11E-04    0.43E-08
   0      8    11.310   106.241    0.27E-03    0.30E-03    0.38E-07
   1      7    11.310     5.901    0.82E-05    0.48E-04    0.19E-07
   1      7    11.310    73.241    0.27E-03    0.27E-03    0.74E-07
 PAW_PBE Ba_sv 06Sep2000                :
 PAW_PBE Si 05Jan2001                   :

 POSCAR: ba8 si16
  positions in direct lattice
  velocities in cartesian coordinates
 exchange correlation table for  LEXCH =        8
   RHO(1)=    0.500       N(1)  =     2000
   RHO(2)=  100.500       N(2)  =     4000

 ion  position               nearest neighbor table
   1  0.006  0.250  0.703-  21 3.40  16 3.44  11 3.44  17 3.64  17 3.64   5 4.38   5 4.38   7 4.62

   2  0.390  0.750  0.297-  22 3.40  12 3.44  15 3.44  18 3.64  18 3.64   6 4.38   6 4.38   8 4.62

   3  0.182  0.750  0.184-  20 3.35   9 3.45  14 3.45  19 3.66  19 3.66  12 3.70  15 3.70  22 3.75
                            23 3.77   5 4.30   7 4.37   7 4.37
   4  0.214  0.250  0.816-  19 3.35  13 3.45  10 3.45  20 3.66  20 3.66  16 3.70  11 3.70  21 3.75
                            24 3.77   6 4.30   8 4.37   8 4.37
   5  0.060  0.750  0.914-   9 3.44  14 3.44  21 3.45  21 3.45  11 3.45  16 3.45  17 3.71   3 4.30
                             1 4.38   1 4.38
   6  0.336  0.250  0.086-  13 3.44  10 3.44  22 3.45  22 3.45  15 3.45  12 3.45  18 3.71   4 4.30
                             2 4.38   2 4.38
   7  0.128  0.250  0.395-  14 3.45   9 3.45  23 3.54  23 3.54  19 3.73  16 3.77  11 3.77  15 3.93
                            12 3.93   3 4.37   3 4.37   1 4.62
   8  0.268  0.750  0.605-  10 3.45  13 3.45  24 3.54  24 3.54  20 3.73  12 3.77  15 3.77  11 3.93
                            16 3.93   4 4.37   4 4.37   2 4.62
   9  0.073  0.073  0.141-  14 2.40  21 2.43  19 2.45   5 3.44   7 3.45   3 3.45
  10  0.323  0.927  0.859-  13 2.40  22 2.43  20 2.45   6 3.44   8 3.45   4 3.45
  11  0.115  0.929  0.659-  16 2.43  23 2.44  17 2.44   1 3.44   5 3.45   4 3.70   7 3.77   8 3.93

[...]

  17  0.031  0.750  0.600-  23 2.44  11 2.44  16 2.44   1 3.64   1 3.64   5 3.71
  18  0.365  0.250  0.400-  24 2.44  15 2.44  12 2.44   2 3.64   2 3.64   6 3.71
  19  0.157  0.250  0.079-  21 2.42  14 2.45   9 2.45   4 3.35   3 3.66   3 3.66   7 3.73
  20  0.240  0.750  0.921-  22 2.42  10 2.45  13 2.45   3 3.35   4 3.66   4 3.66   8 3.73
  21  0.074  0.250  0.959-  19 2.42  14 2.43   9 2.43   1 3.40   5 3.45   5 3.45   4 3.75
  22  0.322  0.750  0.041-  20 2.42  10 2.43  13 2.43   2 3.40   6 3.45   6 3.45   3 3.75
  23  0.113  0.750  0.477-  17 2.44  11 2.44  16 2.44   7 3.54   7 3.54   3 3.77
  24  0.283  0.250  0.523-  18 2.44  15 2.44  12 2.44   8 3.54   8 3.54   4 3.77

  LATTYP: Found a simple orthorhombic cell.
 ALAT       =     6.7778496742
 B/A-ratio  =     1.7117734747
 C/A-ratio  =     3.5423429602

  Lattice vectors:

 A1 = (   0.0000000000,   6.7778496742,   0.0000000000)
 A2 = (   0.0000000000,   0.0000000000, -11.6021432877)
 A3 = ( -24.0094680786,   0.0000000000,   0.0000000000)

Analysis of symmetry for initial positions (statically):
 Subroutine PRICEL returns:
 Original cell was already a primitive cell.

 Routine SETGRP: Setting up the symmetry group for a
 simple orthorhombic supercell.

 Subroutine GETGRP returns: Found  4 space group operations
 (whereof  1 operations were pure point group operations)
 out of a pool of  8 trial point group operations.

The static configuration has the point symmetry C_1 .
 The point group associated with its full space group is C_2h.

Analysis of symmetry for dynamics (positions and initial velocities):
 Subroutine PRICEL returns:
 Original cell was already a primitive cell.

[...]

The dynamic configuration has the point symmetry C_1 .
 The point group associated with its full space group is C_2h.

Analysis of constrained symmetry for selective dynamics:
 Subroutine PRICEL returns:
 Original cell was already a primitive cell.

 Routine SETGRP: Setting up the symmetry group for a
 simple orthorhombic supercell.

 Subroutine GETGRP returns: Found  4 space group operations
 (whereof  1 operations were pure point group operations)
 out of a pool of  8 trial point group operations.

The constrained configuration has the point symmetry C_1 .
 The point group associated with its full space group is C_2h.

 Subroutine INISYM returns: Found  4 space group operations
 (whereof  1 operations are pure point group operations),
 and found     1 'primitive' translations

 KPOINTS: k-density: 8.0

Automatic generation of k-mesh.
Space group operators:
 irot       det(A)        alpha          n_x          n_y          n_z        tau_x        tau_y        tau_z
    1     1.000000     0.000000     1.000000     0.000000     0.000000     0.000000     0.000000     0.000000
    2    -1.000000     0.000000     1.000000     0.000000     0.000000    -0.603928     0.000000     0.000000
    3     1.000000   180.000000     0.000000     1.000000     0.000000    -0.603928     0.500000     0.000000
    4    -1.000000   180.000000     0.000000     1.000000     0.000000     0.000000     0.500000     0.000000

 Subroutine IBZKPT returns following result:

 Found     15 irreducible k-points:

 Following reciprocal coordinates:
            Coordinates               Weight
  0.000000  0.000000  0.000000      1.000000
  0.000000  0.125000  0.000000      2.000000
  0.000000  0.250000  0.000000      2.000000
  0.000000  0.375000  0.000000      2.000000
  0.000000  0.500000  0.000000      1.000000
  0.000000  0.000000  0.200000      2.000000
  0.000000  0.125000  0.200000      4.000000
  0.000000  0.250000  0.200000      4.000000
  0.000000  0.375000  0.200000      4.000000
  0.000000  0.500000  0.200000      2.000000
  0.000000  0.000000  0.400000      2.000000
  0.000000  0.125000  0.400000      4.000000
  0.000000  0.250000  0.400000      4.000000
  0.000000  0.375000  0.400000      4.000000
  0.000000  0.500000  0.400000      2.000000

 Following cartesian coordinates:
            Coordinates               Weight
  0.000000  0.000000  0.000000      1.000000
  0.000000  0.018442  0.000000      2.000000
  0.000000  0.036885  0.000000      2.000000
  0.000000  0.055327  0.000000      2.000000
  0.000000  0.073770  0.000000      1.000000
  0.000000  0.000000  0.017238      2.000000
  0.000000  0.018442  0.017238      4.000000
  0.000000  0.036885  0.017238      4.000000
  0.000000  0.055327  0.017238      4.000000
  0.000000  0.073770  0.017238      2.000000
  0.000000  0.000000  0.034476      2.000000
  0.000000  0.018442  0.034476      4.000000
  0.000000  0.036885  0.034476      4.000000
  0.000000  0.055327  0.034476      4.000000
  0.000000  0.073770  0.034476      2.000000

 TETIRR: Found    108 inequivalent tetrahedra from      240

 SYSTEM =  unknown system
 POSCAR =  ba8 si16

 Startparameter for this run:
   NWRITE =      2    write-flag & timer
   PREC   = normal    normal or accurate (medium, high low for compatibility)
   ISTART =      0    job   : 0-new  1-cont  2-samecut
   ICHARG =      2    charge: 1-file 2-atom 10-const
   ISPIN  =      1    spin polarized calculation?
   LNONCOLLINEAR =      F non collinear calculations
   LSORBIT =      F    spin-orbit coupling
   INIWAV =      1    electr: 0-lowe 1-rand  2-diag
   LASPH  =      F    aspherical Exc in radial PAW
   METAGGA=      F    non-selfconsistent MetaGGA calc.

 Electronic Relaxation 1
   ENCUT  =  500.0 eV  36.75 Ry    6.06 a.u.  43.77 12.36 21.15*2*pi/ulx,y,z
   ENINI  =  500.0     initial cutoff
   ENAUG  =  351.2 eV  augmentation charge cutoff
   NELM   =    100;   NELMIN=  2; NELMDL= -5     # of ELM steps
   EDIFF  = 0.1E-05   stopping-criterion for ELM
   LREAL  =      T    real-space projection
   NLSPLINE    = F    spline interpolate recip. space projectors
   LCOMPAT=      F    compatible to vasp.4.4
   GGA_COMPAT  = T    GGA compatible to vasp.4.4-vasp.4.6
   LMAXPAW     = -100 max onsite density
   LMAXMIX     =    2 max onsite mixed and CHGCAR
   VOSKOWN=      0    Vosko Wilk Nusair interpolation
   ROPT   =   -0.00050  -0.00050
 Ionic relaxation
   EDIFFG = -.1E-02   stopping-criterion for IOM
   NSW    =      0    number of steps for IOM
   NBLOCK =      1;   KBLOCK =      1    inner block; outer block
   IBRION =     -1    ionic relax: 0-MD 1-quasi-New 2-CG
   NFREE  =      0    steps in history (QN), initial steepest desc. (CG)
   ISIF   =      2    stress and relaxation
   IWAVPR =     10    prediction:  0-non 1-charg 2-wave 3-comb
   ISYM   =      2    0-nonsym 1-usesym 2-fastsym
   LCORR  =      T    Harris-Foulkes like correction to forces

   POTIM  = 0.3000    time-step for ionic-motion
   TEIN   =    0.0    initial temperature
   TEBEG  =    0.0;   TEEND  =   0.0 temperature during run
   SMASS  =  -3.00    Nose mass-parameter (am)
   estimated Nose-frequenzy (Omega)   =  0.10E-29 period in steps =****** mass=  -0.132E-25a.u.
   SCALEE = 1.0000    scale energy and forces
   NPACO  =    256;   APACO  = 16.0  distance and # of slots for P.C.
[...]

 BZINTS: Fermi energy:  6.982872;144.000000 electrons
         Band energy:-462.933236;  BLOECHL correction: -0.033716

 eigenvalue-minimisations  :  2768
 total energy-change (2. order) : 0.1178840E+04  (-0.4778586E+04)
 number of electron     144.0000000 magnetization
 augmentation part      144.0000000 magnetization

 Free energy of the ion-electron system (eV)
  alpha Z        PSCENC =       170.45750602
  Ewald energy   TEWEN  =     10985.43469298
  -Hartree energ DENC   =    -17108.03852168
  -exchange      EXHF   =         0.00000000
  -V(xc)+E(xc)   XCENC  =        41.39962497
  PAW double counting   =      3692.15173346    -3390.49189382
  entropy T*S    EENTRO =         0.00000000
  eigenvalues    EBANDS =      -462.93323574
  atomic energy  EATOM  =      7250.85976021
  Solvation  Ediel_sol  =         0.00000000
  free energy    TOTEN  =      1178.83966640 eV

  energy without entropy =     1178.83966640  energy(sigma->0) =     1178.83966640

[...]

 eigenvalue-minimisations  :  3848
 total energy-change (2. order) :-0.1120006E+04  (-0.1092001E+04)
 number of electron     144.0000000 magnetization
 augmentation part      144.0000000 magnetization

[...]

 Broyden mixing:
  rms(total) = 0.92428E+00    rms(broyden)= 0.92427E+00
  rms(prec ) = 0.11934E+01
  weight for this iteration     100.00

[...]

 eigenvalues of (default mixing * dielectric matrix)
  average eigenvalue GAMMA=   1.5437
  1.5437

[...]

 eigenvalue-minimisations  :  3128
 total energy-change (2. order) : 0.7779838E-02  (-0.7581219E-02)
 number of electron     143.9999991 magnetization
 augmentation part      -17.6388244 magnetization

[...]

 Broyden mixing:
  rms(total) = 0.14724E-04    rms(broyden)= 0.14724E-04
  rms(prec ) = 0.21144E-04
  weight for this iteration     100.00

 eigenvalues of (default mixing * dielectric matrix)
  average eigenvalue GAMMA=   2.3699
  9.0615  6.9625  3.8899  3.8899  2.6847  2.6847  1.9179  1.9179  0.9060  0.9060
  1.3257  1.3257  1.2302  1.2302  1.2348  0.9906  0.9906  0.9395  0.9395

[...]

--------------------------------------- Iteration      1(  25)  ---------------------------------------

 BZINTS: Fermi energy: -0.494327;144.000000 electrons
         Band energy:***********;  BLOECHL correction:  0.000000

 eigenvalue-minimisations  :  1904
 total energy-change (2. order) :-0.6902701E-06  (-0.1489647E-07)
 number of electron     143.9999991 magnetization
 augmentation part      -17.6376946 magnetization

 Free energy of the ion-electron system (eV)
  alpha Z        PSCENC =       170.45750602
  Ewald energy   TEWEN  =     10985.43469298
  -Hartree energ DENC   =    -17409.30530609
  -exchange      EXHF   =         0.00000000
  -V(xc)+E(xc)   XCENC  =        48.82251713
  PAW double counting   =      3819.21209904    -3532.92418993
  entropy T*S    EENTRO =         0.00000000
  eigenvalues    EBANDS =     -1437.13108794
  atomic energy  EATOM  =      7250.85976021
  Solvation  Ediel_sol  =         0.00000000
  free energy    TOTEN  =      -104.57400858 eV

  energy without entropy =     -104.57400858  energy(sigma->0) =     -104.57400858

 average (electrostatic) potential at core
  the test charge radii are     1.2192  0.9892
  (the norm of the test charge is              1.0000)
       1 -41.8663       2 -41.8663       3 -40.4308       4 -40.4308       5 -40.8741
       6 -40.8741       7 -41.0228       8 -41.0228       9 -88.7834      10 -88.7834
      11 -89.1818      12 -89.1818      13 -88.7834      14 -88.7834      15 -89.1818
      16 -89.1818      17 -89.2275      18 -89.2275      19 -88.7841      20 -88.7841
      21 -88.9647      22 -88.9647      23 -89.1730      24 -89.1730

 E-fermi :  -0.4943     XC(G=0):  -4.0319     alpha+bet : -3.8451

 k-point     1 :       0.0000    0.0000    0.0000
  band No.  band energies     occupation
      1     -29.4807      2.00000
      2     -29.4807      2.00000
      3     -28.6349      2.00000
      4     -28.6337      2.00000
      5     -28.5184      2.00000
      6     -28.5184      2.00000
      7     -28.0737      2.00000
      8     -28.0729      2.00000
      9     -14.8289      2.00000
     10     -14.8286      2.00000
     11     -14.7529      2.00000
     12     -14.7528      2.00000
     13     -14.6684      2.00000
     14     -14.6684      2.00000
     15     -13.9798      2.00000
     16     -13.9707      2.00000
     17     -13.9630      2.00000
     18     -13.9622      2.00000
     19     -13.9132      2.00000
     20     -13.8949      2.00000
     21     -13.8825      2.00000
     22     -13.8560      2.00000
     23     -13.7896      2.00000
     24     -13.7854      2.00000
     25     -13.7650      2.00000
     26     -13.7631      2.00000
     27     -13.4284      2.00000
     28     -13.4038      2.00000
     29     -13.3509      2.00000
     30     -13.3462      2.00000
     31     -13.3432      2.00000
     32     -13.3362      2.00000
     33     -10.9993      2.00000
     34     -10.9579      2.00000
     35     -10.6956      2.00000
     36     -10.6745      2.00000
     37      -6.2829      2.00000
     38      -6.2802      2.00000
     39      -6.0988      2.00000
     40      -6.0687      2.00000
     41      -6.0664      2.00000
     42      -6.0458      2.00000
     43      -5.9399      2.00000
     44      -5.8895      2.00000
     45      -5.8080      2.00000
     46      -5.6422      2.00000
     47      -5.6263      2.00000
     48      -5.6195      2.00000
     49      -3.4406      2.00000
     50      -3.0506      2.00000
     51      -2.5313      2.00000
     52      -2.5224      2.00000
     53      -2.3521      2.00000
     54      -2.1292      2.00000
     55      -1.8767      2.00000
     56      -1.7844      2.00000
     57      -1.7179      2.00000
     58      -1.7091      2.00000
     59      -1.6745      2.00000
     60      -1.5909      2.00000
[...]
     74       0.5119      0.00000
     75       0.6714      0.00000
     76       0.7960      0.00000
     77       0.8276      0.00000
     78       0.9505      0.00000
     79       1.0204      0.00000
     80       1.2636      0.00000
     81       1.2944      0.00000
     82       1.3782      0.00000
     83       1.4105      0.00000
     84       1.4625      0.00000
     85       1.4691      0.00000
     86       1.5212      0.00000
     87       1.6350      0.00000
     88       1.7299      0.00000

[...]

 k-point    15 :       0.0000    0.5000    0.4000
  band No.  band energies     occupation
      1     -29.4806      2.00000
      2     -29.4806      2.00000
      3     -28.6341      2.00000
      4     -28.6341      2.00000
      5     -28.5184      2.00000
      6     -28.5184      2.00000
      7     -28.0734      2.00000
      8     -28.0734      2.00000
      9     -14.8259      2.00000
     10     -14.8259      2.00000
     11     -14.7578      2.00000
     12     -14.7578      2.00000
     13     -14.6827      2.00000
     14     -14.6827      2.00000
     15     -13.9829      2.00000
     16     -13.9829      2.00000
     17     -13.9549      2.00000
     18     -13.9549      2.00000
     19     -13.9233      2.00000
     20     -13.9233      2.00000
     21     -13.8690      2.00000
     22     -13.8690      2.00000
     23     -13.7886      2.00000
     24     -13.7885      2.00000
     25     -13.7811      2.00000
     26     -13.7811      2.00000
     27     -13.4122      2.00000
     28     -13.4122      2.00000
     29     -13.3555      2.00000
     30     -13.3555      2.00000
     31     -13.3331      2.00000
     32     -13.3331      2.00000
     33     -10.9282      2.00000
     34     -10.9282      2.00000
     35     -10.6321      2.00000
     36     -10.6321      2.00000
     37      -6.3610      2.00000
     38      -6.3609      2.00000
     39      -6.0800      2.00000
     40      -6.0800      2.00000
     41      -6.0142      2.00000
     42      -6.0141      2.00000
     43      -5.7934      2.00000
     44      -5.7933      2.00000
     45      -5.7623      2.00000
     46      -5.7622      2.00000
     47      -5.6507      2.00000
     48      -5.6507      2.00000
     49      -2.6016      2.00000
     50      -2.6016      2.00000
     51      -2.4864      2.00000
     52      -2.4864      2.00000
     53      -2.0634      2.00000
     54      -2.0634      2.00000
     55      -2.0177      2.00000
     56      -2.0177      2.00000
     57      -1.8872      2.00000
     58      -1.8872      2.00000
     59      -1.6321      2.00000
     60      -1.6320      2.00000
[...]
     74       0.3758      0.00000
     75       0.6018      0.00000
     76       0.6018      0.00000
     77       0.7875      0.00000
     78       0.7876      0.00000
     79       0.9039      0.00000
     80       0.9039      0.00000
     81       1.0054      0.00000
     82       1.0054      0.00000
     83       1.3402      0.00000
     84       1.3402      0.00000
     85       1.5163      0.00000
     86       1.5163      0.00000
     87       1.6086      0.00000
     88       1.6086      0.00000

 soft charge-density along one line, spin component           1
         0         1         2         3         4         5         6         7         8         9
 total charge-density along one line

------------------------ aborting loop because EDIFF is reached ----------------------------------------

  FORCE on cell =-STRESS in cart. coord.  units (eV):
  Direction    XX          YY          ZZ          XY          YZ          ZX
  Alpha Z   170.45751   170.45751   170.45751
  Ewald  -18711.31926 15119.75342 14576.98745    -0.00003     0.00000   139.18486
  Hartree-15666.20769 16750.29992 16325.21241     0.00000    -0.00000   109.08862
  E(xc)    -461.52576  -459.42057  -459.91216    -0.00000    -0.00000     0.12338
  Local   32964.67735-33305.44827-32329.63499     0.00001    -0.00000  -246.91627
  n-local   338.56587   338.12866   340.00431     0.05935    -0.20702    -1.02490
  augment  -169.07701  -169.53137  -169.53941    -0.00000    -0.00000     0.21394
  Kinetic  1523.69257  1544.22115  1535.71368    -0.06271    -0.81311    -0.53828
  Fock        0.00000     0.00000     0.00000     0.00000     0.00000     0.00000
  Total     -10.73642   -11.53955   -10.71120     0.00000     0.00000     0.13134
  in kB      -9.11082    -9.79234    -9.08942     0.00000     0.00000     0.11146

 VOLUME and BASIS-vectors are now :
  energy-cutoff  :      500.00
  volume of cell :     1888.05
      direct lattice vectors                 reciprocal lattice vectors
    24.009468079  0.000000000  0.000000000     0.041650236  0.000000000  0.000000000
     0.000000000  6.777849674  0.000000000     0.000000000  0.147539419  0.000000000
     0.000000000  0.000000000 11.602143288     0.000000000  0.000000000  0.086190971

  length of vectors
    24.009468079  6.777849674 11.602143288     0.041650236  0.147539419  0.086190971

 FORCES acting on ions
    electron-ion (+dipol)            ewald-force                    non-local-force                 convergence-correction
   0.761E+03 0.102E-04 0.440E+02   -.756E+03 0.990E-05 -.432E+02   -.431E+01 0.203E-18 -.803E+00   -.109E-03 -.962E-09 0.218E-04
   -.761E+03 -.629E-04 -.440E+02   0.756E+03 -.128E-04 0.432E+02   0.431E+01 -.931E-19 0.803E+00   0.109E-03 0.109E-08 -.218E-04
   0.886E+02 -.615E-04 -.403E+02   -.884E+02 -.173E-04 0.390E+02   0.238E+00 0.413E-18 0.136E+01   0.114E-03 0.163E-08 -.985E-04
   -.886E+02 0.106E-04 0.403E+02   0.884E+02 0.125E-04 -.390E+02   -.238E+00 -.349E-18 -.136E+01   -.114E-03 -.147E-08 0.985E-04
   0.609E+03 -.612E-04 -.480E+02   -.607E+03 -.163E-04 0.482E+02   -.177E+01 -.691E-18 -.262E+00   0.270E-04 0.133E-08 -.114E-03
   -.609E+03 0.901E-05 0.480E+02   0.607E+03 0.141E-04 -.482E+02   0.177E+01 -.514E-18 0.262E+00   -.270E-04 -.122E-08 0.114E-03
   0.348E+03 0.111E-04 -.123E+02   -.348E+03 0.128E-04 0.116E+02   -.338E+00 0.349E-17 0.727E+00   0.715E-04 -.142E-08 0.447E-04
   -.348E+03 -.623E-04 0.123E+02   0.348E+03 -.130E-04 -.116E+02   0.338E+00 0.446E-17 -.727E+00   -.715E-04 0.144E-08 -.447E-04
   0.269E+03 0.363E+02 -.465E+02   -.269E+03 -.378E+02 0.474E+02   -.625E-02 0.152E+01 -.853E+00   0.492E-04 0.604E-04 -.552E-04
   -.269E+03 -.363E+02 0.465E+02   0.269E+03 0.378E+02 -.474E+02   0.625E-02 -.152E+01 0.853E+00   -.492E-04 -.604E-04 0.552E-04
   0.114E+03 -.334E+02 0.201E+01   -.114E+03 0.345E+02 -.933E+00   -.129E-02 -.113E+01 -.107E+01   -.146E-04 -.625E-04 -.971E-05
   -.114E+03 0.334E+02 -.201E+01   0.114E+03 -.345E+02 0.933E+00   0.129E-02 0.113E+01 0.107E+01   0.146E-04 0.625E-04 0.971E-05
   -.269E+03 0.363E+02 0.465E+02   0.269E+03 -.378E+02 -.474E+02   0.625E-02 0.152E+01 0.853E+00   -.492E-04 0.604E-04 0.552E-04
   0.269E+03 -.363E+02 -.465E+02   -.269E+03 0.378E+02 0.474E+02   -.625E-02 -.152E+01 -.853E+00   0.492E-04 -.604E-04 -.552E-04
   -.114E+03 -.334E+02 -.201E+01   0.114E+03 0.345E+02 0.933E+00   0.129E-02 -.113E+01 0.107E+01   0.146E-04 -.625E-04 0.971E-05
   0.114E+03 0.334E+02 0.201E+01   -.114E+03 -.345E+02 -.933E+00   -.129E-02 0.113E+01 -.107E+01   -.146E-04 0.625E-04 -.971E-05
   0.323E+03 -.413E-05 0.460E+02   -.325E+03 -.608E-05 -.466E+02   0.142E+01 -.118E-17 0.611E+00   0.442E-04 0.408E-09 0.387E-04
   -.323E+03 0.616E-05 -.460E+02   0.325E+03 0.630E-05 0.466E+02   -.142E+01 -.125E-17 -.611E+00   -.442E-04 -.436E-09 -.387E-04
   0.332E+02 0.837E-05 -.102E+02   -.313E+02 0.737E-05 0.954E+01   -.157E+01 0.510E-19 0.685E+00   -.359E-04 -.600E-09 -.188E-04
   -.332E+02 -.277E-05 0.102E+02   0.313E+02 -.703E-05 -.954E+01   0.157E+01 -.212E-18 -.685E+00   0.359E-04 0.559E-09 0.188E-04
   0.234E+03 0.431E-05 0.150E+02   -.234E+03 0.800E-05 -.161E+02   -.496E-01 -.214E-17 0.111E+01   0.392E-04 -.524E-09 0.294E-04
   -.234E+03 -.543E-05 -.150E+02   0.234E+03 -.805E-05 0.161E+02   0.496E-01 -.203E-17 -.111E+01   -.392E-04 0.486E-09 -.294E-04
   0.150E+03 -.603E-05 0.578E+02   -.149E+03 -.735E-05 -.595E+02   -.593E+00 -.100E-16 0.175E+01   0.242E-06 0.528E-09 0.999E-04
   -.150E+03 0.371E-05 -.578E+02   0.149E+03 0.723E-05 0.595E+02   0.593E+00 -.102E-16 -.175E+01   -.241E-06 -.539E-09 -.999E-04
   0.687E-04 -.214E-03 0.834E-04   0.199E-12 0.169E-13 0.213E-13   0.444E-15 0.195E-15 0.222E-15   0.198E-07 0.243E-09 -.603E-08

 POSITION                                       TOTAL-FORCE (eV/Angst)
      0.13670      1.69446      8.15131         0.782842      0.000000     -0.000345
      9.37277      5.08339      3.45083        -0.782842     -0.000000      0.000345
      4.36803      5.08339      2.13930         0.412464     -0.000000      0.000362
      5.14143      1.69446      9.46285        -0.412464     -0.000000     -0.000362
      1.43529      5.08339     10.60159         0.615575     -0.000000      0.000652
      8.07418      1.69446      1.00055        -0.615575      0.000000     -0.000652
      3.06944      1.69446      4.58200         0.462804     -0.000000      0.000336
      6.44002      5.08339      7.02014        -0.462804      0.000000     -0.000336
      1.75027      0.49396      1.63425        -0.120558      0.000089      0.000625
      7.75920      6.28389      9.96789         0.120558     -0.000089     -0.000625
      2.75446      6.29659      7.64894         0.261531      0.000034      0.000616
      6.75500      0.48126      3.95320        -0.261531     -0.000034     -0.000616
      7.75920      3.88288      9.96789         0.120558      0.000089     -0.000625
      1.75027      2.89497      1.63425        -0.120558     -0.000089      0.000625
      6.75500      2.90767      3.95320        -0.261531      0.000034     -0.000616
      2.75446      3.87018      7.64894         0.261531     -0.000034      0.000616
      0.74693      5.08339      6.96039        -0.247542     -0.000000     -0.000682
      8.76254      1.69446      4.64175         0.247542     -0.000000      0.000682
      3.75780      1.69446      0.91175         0.258628      0.000000     -0.000134
      5.75166      5.08339     10.69040        -0.258628     -0.000000      0.000134
      1.78112      1.69446     11.12310        -0.156385      0.000000      0.000218
      7.72835      5.08339      0.47904         0.156385      0.000000     -0.000218
      2.72362      5.08339      5.53424        -0.186169      0.000000      0.000308
      6.78585      1.69446      6.06790         0.186169     -0.000000     -0.000308
    total drift:                                0.000069     -0.000214      0.000083

  FREE ENERGIE OF THE ION-ELECTRON SYSTEM (eV)
  free  energy   TOTEN  =      -104.57400858 eV

  energy  without entropy=     -104.57400858  energy(sigma->0) =     -104.57400858

 writing wavefunctions
 BZINTS: Fermi energy: -0.494327;144.000000 electrons
         Band energy:***********;  BLOECHL correction:  0.000000