 vasp.5.4.4.18Apr17-6-g9f103f2a35 (build Nov 21 2017 15:30:27) complex

 executed on             LinuxIFC date 2020.09.15  08:02:32

 INCAR:
 POTCAR:   PAW_PBE Ba_sv 06Sep2000
 POTCAR:   PAW_PBE Si 05Jan2001

 POTCAR:   PAW_PBE Ba_sv 06Sep2000
   VRHFIN =Ba: 5s5p6s

   TITEL  = PAW_PBE Ba_sv 06Sep2000
   POMASS =  137.327; ZVAL   =   10.000    mass and valenz
   ENMAX  =  187.210; ENMIN  =  140.408 eV
   QCUT   =   -3.709; QGAM   =    7.419    optimization parameters

   Description
     l     E      TYP  RCUT    TYP  RCUT
     0   .000     23  2.800
     0   .000     23  2.800
     1   .000     23  2.700
     1  2.000     23  2.700
     2   .000     23  2.700
     2   .000     23  2.700

 POTCAR:   PAW_PBE Si 05Jan2001
   VRHFIN =Si: s2p2

   TITEL  = PAW_PBE Si 05Jan2001
   POMASS =   28.085; ZVAL   =    4.000    mass and valenz
   ENMAX  =  245.345; ENMIN  =  184.009 eV
   QCUT   =   -4.246; QGAM   =    8.493    optimization parameters

   Description
     l     E      TYP  RCUT    TYP  RCUT
     0   .000     23  1.900
     0   .000     23  1.900
     1   .000     23  1.900
     1   .000     23  1.900
     2   .000      7  1.900

 Optimization of the real space projectors (new method)

 maximal supplied QI-value         = 13.42
 optimisation between [QCUT,QGAM] = [ 11.40, 22.81] = [ 36.42,145.68] Ry
 Optimized for a Real-space Cutoff    1.56 Angstroem

   l    n(q)    QCUT    max X(q) W(low)/X(q) W(high)/X(q)  e(spline)
   0     11    11.404     7.198    0.14E-04    0.26E-04    0.99E-07
   0     11    11.404    15.603    0.29E-04    0.72E-04    0.44E-06
   1     10    11.404     3.746    0.20E-04    0.24E-04    0.43E-07
   1     10    11.404     4.362    0.22E-03    0.97E-04    0.22E-06
   2     10    11.404     5.782    0.83E-04    0.62E-05    0.27E-06
   2     10    11.404    65.505    0.42E-03    0.31E-04    0.12E-05
 Optimization of the real space projectors (new method)

 maximal supplied QI-value         = 19.84
 optimisation between [QCUT,QGAM] = [ 11.31, 22.82] = [ 35.82,145.81] Ry
 Optimized for a Real-space Cutoff    1.16 Angstroem

   l    n(q)    QCUT    max X(q) W(low)/X(q) W(high)/X(q)  e(spline)
   0      8    11.310     8.708    0.14E-04    0.11E-04    0.43E-08
   0      8    11.310   106.241    0.27E-03    0.30E-03    0.38E-07
   1      7    11.310     5.901    0.82E-05    0.48E-04    0.19E-07
   1      7    11.310    73.241    0.27E-03    0.27E-03    0.74E-07
 PAW_PBE Ba_sv 06Sep2000                :
 PAW_PBE Si 05Jan2001                   :

 POSCAR: ba8 si16
  positions in direct lattice
  velocities in cartesian coordinates
 exchange correlation table for  LEXCH =        8
   RHO(1)=    0.500       N(1)  =     2000
   RHO(2)=  100.500       N(2)  =     4000

 ion  position               nearest neighbor table
   1  0.006  0.250  0.706-  21 3.42  16 3.45  11 3.45  17 3.66  17 3.66   5 4.39   5 4.39   7 4.62
                             4 4.72
   2  0.372  0.750  0.294-  22 3.42  12 3.45  15 3.45  18 3.66  18 3.66   6 4.39   6 4.39   8 4.62
                             3 4.72
   3  0.182  0.750  0.187-  20 3.30  22 3.40  12 3.42  15 3.42   9 3.44  14 3.44  19 3.64  19 3.64
                            23 3.74   5 4.27   7 4.38   7 4.38   2 4.72
   4  0.195  0.250  0.813-  19 3.30  21 3.40  16 3.42  11 3.42  13 3.44  10 3.44  20 3.64  20 3.64
                            24 3.74   6 4.27   8 4.38   8 4.38   1 4.72
   5  0.060  0.750  0.919-   9 3.44  14 3.44  21 3.45  21 3.45  11 3.51  16 3.51  17 3.77  20 3.87
                             3 4.27   1 4.39   1 4.39
   6  0.318  0.250  0.081-  13 3.44  10 3.44  22 3.45  22 3.45  15 3.51  12 3.51  18 3.77  19 3.87
                             4 4.27   2 4.39   2 4.39
   7  0.128  0.250  0.398-  14 3.43   9 3.43  15 3.52  12 3.52  23 3.53  23 3.53  24 3.57  19 3.69
                            16 3.74  11 3.74   3 4.38   3 4.38   1 4.62
   8  0.249  0.750  0.602-  10 3.43  13 3.43  11 3.52  16 3.52  24 3.53  24 3.53  23 3.57  20 3.69
                            12 3.74  15 3.74   4 4.38   4 4.38   2 4.62
   9  0.073  0.073  0.146-  14 2.40  21 2.43  19 2.44   7 3.43   5 3.44   3 3.44
  10  0.304  0.927  0.854-  13 2.40  22 2.43  20 2.44   8 3.43   6 3.44   4 3.44
  11  0.115  0.928  0.659-  16 2.41  23 2.43  17 2.44   4 3.42   1 3.45   5 3.51   8 3.52   7 3.74

  12  0.263  0.072  0.341-  15 2.41  24 2.43  18 2.44   3 3.42   2 3.45   6 3.51   7 3.52   8 3.74

[...]

  21  0.074  0.250  0.964-  14 2.43   9 2.43  19 2.43   4 3.40   1 3.42   5 3.45   5 3.45
  22  0.303  0.750  0.036-  10 2.43  13 2.43  20 2.43   3 3.40   2 3.42   6 3.45   6 3.45
  23  0.113  0.750  0.477-  11 2.43  16 2.43  17 2.44   7 3.53   7 3.53   8 3.57   3 3.74
  24  0.264  0.250  0.523-  15 2.43  12 2.43  18 2.44   8 3.53   8 3.53   7 3.57   4 3.74

  LATTYP: Found a simple orthorhombic cell.
 ALAT       =     6.7778496742
 B/A-ratio  =     1.7117734747
 C/A-ratio  =     3.5423429602

  Lattice vectors:

 A1 = (   0.0000000000,   6.7778496742,   0.0000000000)
 A2 = (   0.0000000000,   0.0000000000, -11.6021432877)
 A3 = ( -24.0094680786,   0.0000000000,   0.0000000000)

Analysis of symmetry for initial positions (statically):
 Subroutine PRICEL returns:
 Original cell was already a primitive cell.

 Routine SETGRP: Setting up the symmetry group for a
 simple orthorhombic supercell.

 Subroutine GETGRP returns: Found  4 space group operations
 (whereof  1 operations were pure point group operations)
 out of a pool of  8 trial point group operations.

The static configuration has the point symmetry C_1 .
 The point group associated with its full space group is C_2h.

Analysis of symmetry for dynamics (positions and initial velocities):
 Subroutine PRICEL returns:
 Original cell was already a primitive cell.

[...]

The dynamic configuration has the point symmetry C_1 .
 The point group associated with its full space group is C_2h.

Analysis of constrained symmetry for selective dynamics:
 Subroutine PRICEL returns:
 Original cell was already a primitive cell.

 Routine SETGRP: Setting up the symmetry group for a
 simple orthorhombic supercell.

 Subroutine GETGRP returns: Found  4 space group operations
 (whereof  1 operations were pure point group operations)
 out of a pool of  8 trial point group operations.

The constrained configuration has the point symmetry C_1 .
 The point group associated with its full space group is C_2h.

 Subroutine INISYM returns: Found  4 space group operations
 (whereof  1 operations are pure point group operations),
 and found     1 'primitive' translations

 KPOINTS: k-density: 8.0

Automatic generation of k-mesh.
Space group operators:
 irot       det(A)        alpha          n_x          n_y          n_z        tau_x        tau_y        tau_z
    1     1.000000     0.000000     1.000000     0.000000     0.000000     0.000000     0.000000     0.000000
    2    -1.000000     0.000000     1.000000     0.000000     0.000000    -0.622671     0.000000     0.000000
    3     1.000000   180.000000     0.000000     1.000000     0.000000    -0.622671     0.500000     0.000000
    4    -1.000000   180.000000     0.000000     1.000000     0.000000     0.000000     0.500000     0.000000

 Subroutine IBZKPT returns following result:

 Found     15 irreducible k-points:

 Following reciprocal coordinates:
            Coordinates               Weight
  0.000000  0.000000  0.000000      1.000000
  0.000000  0.125000  0.000000      2.000000
  0.000000  0.250000  0.000000      2.000000
  0.000000  0.375000  0.000000      2.000000
  0.000000  0.500000  0.000000      1.000000
  0.000000  0.000000  0.200000      2.000000
  0.000000  0.125000  0.200000      4.000000
  0.000000  0.250000  0.200000      4.000000
  0.000000  0.375000  0.200000      4.000000
  0.000000  0.500000  0.200000      2.000000
  0.000000  0.000000  0.400000      2.000000
  0.000000  0.125000  0.400000      4.000000
  0.000000  0.250000  0.400000      4.000000
  0.000000  0.375000  0.400000      4.000000
  0.000000  0.500000  0.400000      2.000000

 Following cartesian coordinates:
            Coordinates               Weight
  0.000000  0.000000  0.000000      1.000000
  0.000000  0.018442  0.000000      2.000000
  0.000000  0.036885  0.000000      2.000000
  0.000000  0.055327  0.000000      2.000000
  0.000000  0.073770  0.000000      1.000000
  0.000000  0.000000  0.017238      2.000000
  0.000000  0.018442  0.017238      4.000000
  0.000000  0.036885  0.017238      4.000000
  0.000000  0.055327  0.017238      4.000000
  0.000000  0.073770  0.017238      2.000000
  0.000000  0.000000  0.034476      2.000000
  0.000000  0.018442  0.034476      4.000000
  0.000000  0.036885  0.034476      4.000000
  0.000000  0.055327  0.034476      4.000000
  0.000000  0.073770  0.034476      2.000000

 TETIRR: Found    108 inequivalent tetrahedra from      240

 SYSTEM =  unknown system
 POSCAR =  ba8 si16

 Startparameter for this run:
   NWRITE =      2    write-flag & timer
   PREC   = normal    normal or accurate (medium, high low for compatibility)
   ISTART =      0    job   : 0-new  1-cont  2-samecut
   ICHARG =      2    charge: 1-file 2-atom 10-const
   ISPIN  =      1    spin polarized calculation?
   LNONCOLLINEAR =      F non collinear calculations
   LSORBIT =      F    spin-orbit coupling
   INIWAV =      1    electr: 0-lowe 1-rand  2-diag
   LASPH  =      F    aspherical Exc in radial PAW
   METAGGA=      F    non-selfconsistent MetaGGA calc.

 Electronic Relaxation 1
   ENCUT  =  500.0 eV  36.75 Ry    6.06 a.u.  43.77 12.36 21.15*2*pi/ulx,y,z
   ENINI  =  500.0     initial cutoff
   ENAUG  =  351.2 eV  augmentation charge cutoff
   NELM   =    100;   NELMIN=  2; NELMDL= -5     # of ELM steps
   EDIFF  = 0.1E-05   stopping-criterion for ELM
   LREAL  =      T    real-space projection
   NLSPLINE    = F    spline interpolate recip. space projectors
   LCOMPAT=      F    compatible to vasp.4.4
   GGA_COMPAT  = T    GGA compatible to vasp.4.4-vasp.4.6
   LMAXPAW     = -100 max onsite density
   LMAXMIX     =    2 max onsite mixed and CHGCAR
   VOSKOWN=      0    Vosko Wilk Nusair interpolation
   ROPT   =   -0.00050  -0.00050
 Ionic relaxation
   EDIFFG = -.1E-02   stopping-criterion for IOM
   NSW    =      0    number of steps for IOM
   NBLOCK =      1;   KBLOCK =      1    inner block; outer block
   IBRION =     -1    ionic relax: 0-MD 1-quasi-New 2-CG
   NFREE  =      0    steps in history (QN), initial steepest desc. (CG)
   ISIF   =      2    stress and relaxation
   IWAVPR =     10    prediction:  0-non 1-charg 2-wave 3-comb
   ISYM   =      2    0-nonsym 1-usesym 2-fastsym
   LCORR  =      T    Harris-Foulkes like correction to forces

   POTIM  = 0.3000    time-step for ionic-motion
   TEIN   =    0.0    initial temperature
   TEBEG  =    0.0;   TEEND  =   0.0 temperature during run
   SMASS  =  -3.00    Nose mass-parameter (am)
   estimated Nose-frequenzy (Omega)   =  0.10E-29 period in steps =****** mass=  -0.132E-25a.u.
   SCALEE = 1.0000    scale energy and forces
   NPACO  =    256;   APACO  = 16.0  distance and # of slots for P.C.
   PSTRESS=    0.0 pullay stress

  Mass of Ions in am
   POMASS = 137.33 28.09
  Ionic Valenz
   ZVAL   =  10.00  4.00
[...]

 BZINTS: Fermi energy:  7.092517;144.000000 electrons
         Band energy:-463.493012;  BLOECHL correction: -0.025236

 eigenvalue-minimisations  :  2768
 total energy-change (2. order) : 0.1195152E+04  (-0.4788808E+04)
 number of electron     144.0000000 magnetization
 augmentation part      144.0000000 magnetization

 Free energy of the ion-electron system (eV)
  alpha Z        PSCENC =       170.45750602
  Ewald energy   TEWEN  =     12492.90812124
  -Hartree energ DENC   =    -18600.28497658
  -exchange      EXHF   =         0.00000000
  -V(xc)+E(xc)   XCENC  =        43.04502037
  PAW double counting   =      3692.15173346    -3390.49189382
  entropy T*S    EENTRO =         0.00000000
  eigenvalues    EBANDS =      -463.49301233
  atomic energy  EATOM  =      7250.85976021
  Solvation  Ediel_sol  =         0.00000000
  free energy    TOTEN  =      1195.15225857 eV

  energy without entropy =     1195.15225857  energy(sigma->0) =     1195.15225857

[...]

 eigenvalue-minimisations  :  3760
 total energy-change (2. order) :-0.1131886E+04  (-0.1101005E+04)
 number of electron     144.0000000 magnetization
 augmentation part      144.0000000 magnetization

[...]

 Broyden mixing:
  rms(total) = 0.90838E+00    rms(broyden)= 0.90837E+00
  rms(prec ) = 0.11971E+01
  weight for this iteration     100.00

[...]

 eigenvalues of (default mixing * dielectric matrix)
  average eigenvalue GAMMA=   1.5331
  1.5331

[...]

 eigenvalue-minimisations  :  3104
 total energy-change (2. order) : 0.9096910E-02  (-0.6588296E-02)
 number of electron     143.9999991 magnetization
 augmentation part      -17.6771773 magnetization

[...]

 Broyden mixing:
  rms(total) = 0.60752E-05    rms(broyden)= 0.60751E-05
  rms(prec ) = 0.88901E-05
  weight for this iteration     100.00

 eigenvalues of (default mixing * dielectric matrix)
  average eigenvalue GAMMA=   2.3359
  9.1527  7.0153  4.0163  3.8345  2.8657  2.5143  1.9023  1.9023  1.4976  1.4976
  0.9170  0.9170  1.2240  1.2240  1.1423  1.1423  1.0641  0.9673  0.9673  0.9542

[...]

--------------------------------------- Iteration      1(  26)  ---------------------------------------

 BZINTS: Fermi energy: -0.403750;144.000000 electrons
         Band energy:***********;  BLOECHL correction:  0.000000

 eigenvalue-minimisations  :  1920
 total energy-change (2. order) :-0.2219958E-06  (-0.4879962E-08)
 number of electron     143.9999991 magnetization
 augmentation part      -17.6753759 magnetization

 Free energy of the ion-electron system (eV)
  alpha Z        PSCENC =       170.45750602
  Ewald energy   TEWEN  =     12492.90812124
  -Hartree energ DENC   =    -18925.00706365
  -exchange      EXHF   =         0.00000000
  -V(xc)+E(xc)   XCENC  =        50.20137452
  PAW double counting   =      3834.22034124    -3548.04389714
  entropy T*S    EENTRO =         0.00000000
  eigenvalues    EBANDS =     -1430.86347485
  atomic energy  EATOM  =      7250.85976021
  Solvation  Ediel_sol  =         0.00000000
  free energy    TOTEN  =      -105.26733241 eV

  energy without entropy =     -105.26733241  energy(sigma->0) =     -105.26733241

 average (electrostatic) potential at core
  the test charge radii are     1.2192  0.9892
  (the norm of the test charge is              1.0000)
       1 -41.9312       2 -41.9312       3 -40.0214       4 -40.0214       5 -40.8336
       6 -40.8336       7 -40.6725       8 -40.6724       9 -88.7621      10 -88.7622
      11 -89.2112      12 -89.2112      13 -88.7622      14 -88.7621      15 -89.2112
      16 -89.2112      17 -89.2842      18 -89.2842      19 -88.7942      20 -88.7942
      21 -88.9030      22 -88.9030      23 -89.2089      24 -89.2089

 E-fermi :  -0.4037     XC(G=0):  -3.9574     alpha+bet : -3.8451

 k-point     1 :       0.0000    0.0000    0.0000
  band No.  band energies     occupation
      1     -29.5437      2.00000
      2     -29.5437      2.00000
      3     -28.4759      2.00000
      4     -28.4758      2.00000
      5     -28.3113      2.00000
      6     -28.3082      2.00000
      7     -27.7060      2.00000
      8     -27.7050      2.00000
      9     -14.8844      2.00000
     10     -14.8837      2.00000
     11     -14.8112      2.00000
     12     -14.8110      2.00000
     13     -14.7331      2.00000
     14     -14.7331      2.00000
     15     -13.9013      2.00000
     16     -13.8983      2.00000
     17     -13.7686      2.00000
     18     -13.7679      2.00000
     19     -13.7311      2.00000
     20     -13.7270      2.00000
     21     -13.7024      2.00000
     22     -13.6857      2.00000
     23     -13.6488      2.00000
     24     -13.6255      2.00000
     25     -13.6056      2.00000
     26     -13.5771      2.00000
     27     -13.1228      2.00000
     28     -13.0978      2.00000
     29     -13.0657      2.00000
     30     -13.0609      2.00000
     31     -13.0332      2.00000
     32     -13.0231      2.00000
     33     -11.1055      2.00000
     34     -11.0353      2.00000
     35     -10.6764      2.00000
     36     -10.6447      2.00000
     37      -6.3786      2.00000
     38      -6.3700      2.00000
     39      -6.1702      2.00000
     40      -6.1688      2.00000
     41      -6.1661      2.00000
     42      -6.1510      2.00000
     43      -5.9363      2.00000
     44      -5.9226      2.00000
     45      -5.7834      2.00000
     46      -5.6175      2.00000
     47      -5.6030      2.00000
     48      -5.6007      2.00000
     49      -3.5317      2.00000
     50      -3.0317      2.00000
     51      -2.5437      2.00000
     52      -2.5391      2.00000
     53      -2.4603      2.00000
     54      -2.1280      2.00000
     55      -1.9279      2.00000
     56      -1.8881      2.00000
     57      -1.8058      2.00000
     58      -1.7812      2.00000
     59      -1.7430      2.00000
     60      -1.6636      2.00000
[...]
     74       0.5171      0.00000
     75       0.5896      0.00000
     76       0.7620      0.00000
     77       0.7749      0.00000
     78       0.8566      0.00000
     79       1.0499      0.00000
     80       1.2614      0.00000
     81       1.2779      0.00000
     82       1.3351      0.00000
     83       1.4305      0.00000
     84       1.4309      0.00000
     85       1.4888      0.00000
     86       1.5503      0.00000
     87       1.6403      0.00000
     88       1.7145      0.00000

[...]

 k-point    15 :       0.0000    0.5000    0.4000
  band No.  band energies     occupation
      1     -29.5436      2.00000
      2     -29.5436      2.00000
      3     -28.4758      2.00000
      4     -28.4758      2.00000
      5     -28.3096      2.00000
      6     -28.3096      2.00000
      7     -27.7056      2.00000
      8     -27.7056      2.00000
      9     -14.8809      2.00000
     10     -14.8809      2.00000
     11     -14.8156      2.00000
     12     -14.8156      2.00000
     13     -14.7465      2.00000
     14     -14.7465      2.00000
     15     -13.8945      2.00000
     16     -13.8944      2.00000
     17     -13.7695      2.00000
     18     -13.7695      2.00000
     19     -13.7550      2.00000
     20     -13.7550      2.00000
     21     -13.7021      2.00000
     22     -13.7021      2.00000
     23     -13.6604      2.00000
     24     -13.6604      2.00000
     25     -13.5817      2.00000
     26     -13.5817      2.00000
     27     -13.1053      2.00000
     28     -13.1053      2.00000
     29     -13.0643      2.00000
     30     -13.0643      2.00000
     31     -13.0285      2.00000
     32     -13.0285      2.00000
     33     -11.0206      2.00000
     34     -11.0206      2.00000
     35     -10.6045      2.00000
     36     -10.6045      2.00000
     37      -6.4457      2.00000
     38      -6.4456      2.00000
     39      -6.1514      2.00000
     40      -6.1514      2.00000
     41      -6.1047      2.00000
     42      -6.1047      2.00000
     43      -5.8017      2.00000
     44      -5.8017      2.00000
     45      -5.7624      2.00000
     46      -5.7624      2.00000
     47      -5.6279      2.00000
     48      -5.6279      2.00000
     49      -2.7057      2.00000
     50      -2.7057      2.00000
     51      -2.5152      2.00000
     52      -2.5152      2.00000
     53      -2.1694      2.00000
     54      -2.1694      2.00000
     55      -2.1072      2.00000
     56      -2.1072      2.00000
     57      -1.8938      2.00000
     58      -1.8938      2.00000
     59      -1.6955      2.00000
     60      -1.6955      2.00000
[...]
     74       0.3165      0.00000
     75       0.5591      0.00000
     76       0.5591      0.00000
     77       0.7370      0.00000
     78       0.7370      0.00000
     79       0.9356      0.00000
     80       0.9356      0.00000
     81       0.9975      0.00000
     82       0.9975      0.00000
     83       1.3528      0.00000
     84       1.3528      0.00000
     85       1.5364      0.00000
     86       1.5364      0.00000
     87       1.6388      0.00000
     88       1.6388      0.00000

 soft charge-density along one line, spin component           1
         0         1         2         3         4         5         6         7         8         9
 total charge-density along one line

------------------------ aborting loop because EDIFF is reached ----------------------------------------

  FORCE on cell =-STRESS in cart. coord.  units (eV):
  Direction    XX          YY          ZZ          XY          YZ          ZX
  Alpha Z   170.45751   170.45751   170.45751
  Ewald  -20272.29861 16649.11908 16116.07402    -0.00002     0.00000   141.07809
  Hartree-17197.82808 18270.81517 17852.01784     0.00000    -0.00000   106.43636
  E(xc)    -462.43752  -460.77442  -461.15873    -0.00000    -0.00000     0.21812
  Local   36053.53637-36355.16129-35394.97961     0.00001    -0.00000  -245.00919
  n-local   339.12262   339.45954   339.85737     0.05896    -0.19239    -1.82092
  augment  -169.41483  -169.70700  -169.55264    -0.00000    -0.00000     0.35953
  Kinetic  1533.60702  1547.82445  1540.15250    -0.02187    -0.81302    -1.23980
  Fock        0.00000     0.00000     0.00000     0.00000     0.00000     0.00000
  Total      -5.25551    -7.96697    -7.13174     0.00000     0.00000     0.02219
  in kB      -4.45977    -6.76069    -6.05193     0.00000     0.00000     0.01883

 VOLUME and BASIS-vectors are now :
  energy-cutoff  :      500.00
  volume of cell :     1888.05
      direct lattice vectors                 reciprocal lattice vectors
    24.009468079  0.000000000  0.000000000     0.041650236  0.000000000  0.000000000
     0.000000000  6.777849674  0.000000000     0.000000000  0.147539419  0.000000000
     0.000000000  0.000000000 11.602143288     0.000000000  0.000000000  0.086190971

  length of vectors
    24.009468079  6.777849674 11.602143288     0.041650236  0.147539419  0.086190971

 FORCES acting on ions
    electron-ion (+dipol)            ewald-force                    non-local-force                 convergence-correction
   0.796E+03 0.102E-04 0.437E+02   -.791E+03 0.981E-05 -.428E+02   -.425E+01 -.105E-18 -.828E+00   0.240E-04 -.723E-09 0.101E-04
   -.796E+03 -.633E-04 -.437E+02   0.791E+03 -.127E-04 0.428E+02   0.425E+01 0.174E-18 0.828E+00   -.240E-04 0.777E-09 -.101E-04
   0.750E+02 -.595E-04 -.348E+02   -.748E+02 -.194E-04 0.335E+02   -.370E+00 -.436E-19 0.124E+01   0.606E-04 0.119E-08 -.372E-04
   -.750E+02 0.122E-04 0.348E+02   0.748E+02 0.134E-04 -.335E+02   0.370E+00 0.285E-19 -.124E+01   -.606E-04 -.110E-08 0.372E-04
   0.641E+03 -.611E-04 -.499E+02   -.639E+03 -.169E-04 0.505E+02   -.209E+01 0.466E-18 -.558E+00   0.814E-04 0.965E-09 -.548E-04
   -.641E+03 0.904E-05 0.499E+02   0.639E+03 0.147E-04 -.505E+02   0.209E+01 -.471E-18 0.558E+00   -.814E-04 -.916E-09 0.548E-04
   0.373E+03 0.126E-04 -.675E+01   -.372E+03 0.136E-04 0.591E+01   -.132E+01 0.315E-17 0.837E+00   0.843E-04 -.107E-08 0.150E-04
   -.373E+03 -.613E-04 0.675E+01   0.372E+03 -.136E-04 -.591E+01   0.132E+01 -.199E-17 -.837E+00   -.843E-04 0.106E-08 -.150E-04
   0.278E+03 0.368E+02 -.466E+02   -.278E+03 -.383E+02 0.475E+02   -.111E+00 0.150E+01 -.884E+00   0.633E-04 0.370E-04 -.351E-04
   -.278E+03 -.368E+02 0.466E+02   0.278E+03 0.383E+02 -.475E+02   0.111E+00 -.150E+01 0.884E+00   -.633E-04 -.370E-04 0.351E-04
   0.128E+03 -.322E+02 0.268E+01   -.128E+03 0.333E+02 -.173E+01   -.702E+00 -.112E+01 -.953E+00   0.174E-04 -.215E-04 0.484E-07
   -.128E+03 0.322E+02 -.268E+01   0.128E+03 -.333E+02 0.173E+01   0.702E+00 0.112E+01 0.953E+00   -.174E-04 0.215E-04 -.466E-07
   -.278E+03 0.368E+02 0.466E+02   0.278E+03 -.383E+02 -.475E+02   0.111E+00 0.150E+01 0.884E+00   -.633E-04 0.370E-04 0.351E-04
   0.278E+03 -.368E+02 -.466E+02   -.278E+03 0.383E+02 0.475E+02   -.111E+00 -.150E+01 -.884E+00   0.633E-04 -.370E-04 -.351E-04
   -.128E+03 -.322E+02 -.268E+01   0.128E+03 0.333E+02 0.173E+01   0.702E+00 -.112E+01 0.953E+00   -.174E-04 -.215E-04 -.466E-07
   0.128E+03 0.322E+02 0.268E+01   -.128E+03 -.333E+02 -.173E+01   -.702E+00 0.112E+01 -.953E+00   0.174E-04 0.215E-04 0.484E-07
   0.336E+03 -.424E-05 0.456E+02   -.338E+03 -.607E-05 -.463E+02   0.135E+01 -.103E-18 0.633E+00   0.428E-04 0.315E-09 0.242E-04
   -.336E+03 0.614E-05 -.456E+02   0.338E+03 0.632E-05 0.463E+02   -.135E+01 0.914E-19 -.633E+00   -.428E-04 -.322E-09 -.242E-04
   0.317E+02 0.105E-04 -.110E+02   -.302E+02 0.778E-05 0.103E+02   -.136E+01 0.252E-18 0.780E+00   -.140E-04 -.443E-09 -.127E-04
   -.317E+02 -.770E-06 0.110E+02   0.302E+02 -.743E-05 -.103E+02   0.136E+01 0.318E-18 -.780E+00   0.140E-04 0.416E-09 0.127E-04
   0.249E+03 0.446E-05 0.933E+01   -.248E+03 0.814E-05 -.105E+02   -.841E+00 -.557E-18 0.117E+01   0.547E-04 -.386E-09 0.192E-04
   -.249E+03 -.560E-05 -.933E+01   0.248E+03 -.819E-05 0.105E+02   0.841E+00 0.634E-18 -.117E+01   -.547E-04 0.367E-09 -.192E-04
   0.162E+03 -.627E-05 0.620E+02   -.162E+03 -.773E-05 -.636E+02   -.920E+00 0.904E-17 0.164E+01   0.281E-04 0.402E-09 0.400E-04
   -.162E+03 0.376E-05 -.620E+02   0.162E+03 0.753E-05 0.636E+02   0.920E+00 0.100E-16 -.164E+01   -.281E-04 -.402E-09 -.400E-04
   0.222E-04 -.205E-03 0.619E-04   0.142E-12 0.293E-13 0.142E-13   0.444E-15 0.197E-16 0.000E+00   0.427E-07 0.998E-10 -.259E-08

 POSITION                                       TOTAL-FORCE (eV/Angst)
      0.13670      1.69446      8.18953         0.742495      0.000000      0.000163
      8.92277      5.08339      3.41262        -0.742495     -0.000000     -0.000163
      4.36803      5.08339      2.16901        -0.171816     -0.000000     -0.000030
      4.69143      1.69446      9.43314         0.171816     -0.000000      0.000030
      1.43529      5.08339     10.66108         0.692023      0.000000      0.000390
      7.62418      1.69446      0.94107        -0.692023     -0.000000     -0.000390
      3.06944      1.69446      4.62116         0.240270     -0.000000      0.000321
      5.99002      5.08339      6.98098        -0.240270     -0.000000     -0.000321
      1.75027      0.49341      1.69203        -0.165782     -0.000585      0.000493
      7.30920      6.28444      9.91011         0.165782      0.000585     -0.000493
      2.75446      6.28841      7.64171        -0.019596      0.000634      0.000072
      6.30500      0.48944      3.96044         0.019596     -0.000634     -0.000072
      7.30920      3.88233      9.91011         0.165782     -0.000585     -0.000493
      1.75027      2.89552      1.69203        -0.165782      0.000585      0.000493
      6.30500      2.89948      3.96044         0.019596      0.000634     -0.000072
      2.75446      3.87837      7.64171        -0.019596     -0.000634      0.000072
      0.74693      5.08339      6.95732        -0.232813      0.000000      0.000325
      8.31254      1.69446      4.64482         0.232813      0.000000     -0.000325
      3.75780      1.69446      0.99511         0.147290     -0.000000      0.000530
      5.30166      5.08339     10.60704        -0.147290      0.000000     -0.000530
      1.78112      1.69446     11.18679        -0.308860      0.000000      0.000635
      7.27835      5.08339      0.41536         0.308860      0.000000     -0.000635
      2.72362      5.08339      5.53174        -0.326826      0.000000      0.000168
      6.33585      1.69446      6.07040         0.326826     -0.000000     -0.000168
    total drift:                                0.000022     -0.000205      0.000062

  FREE ENERGIE OF THE ION-ELECTRON SYSTEM (eV)
  free  energy   TOTEN  =      -105.26733241 eV

  energy  without entropy=     -105.26733241  energy(sigma->0) =     -105.26733241

 writing wavefunctions
 BZINTS: Fermi energy: -0.403750;144.000000 electrons
         Band energy:***********;  BLOECHL correction:  0.000000