 vasp.5.4.4.18Apr17-6-g9f103f2a35 (build Nov 21 2017 15:30:27) complex

 executed on             LinuxIFC date 2020.09.15  08:04:35

 INCAR:
 POTCAR:   PAW_PBE Ba_sv 06Sep2000
 POTCAR:   PAW_PBE Si 05Jan2001

 POTCAR:   PAW_PBE Ba_sv 06Sep2000
   VRHFIN =Ba: 5s5p6s

   TITEL  = PAW_PBE Ba_sv 06Sep2000
   POMASS =  137.327; ZVAL   =   10.000    mass and valenz
   ENMAX  =  187.210; ENMIN  =  140.408 eV
   QCUT   =   -3.709; QGAM   =    7.419    optimization parameters

   Description
     l     E      TYP  RCUT    TYP  RCUT
     0   .000     23  2.800
     0   .000     23  2.800
     1   .000     23  2.700
     1  2.000     23  2.700
     2   .000     23  2.700
     2   .000     23  2.700

 POTCAR:   PAW_PBE Si 05Jan2001
   VRHFIN =Si: s2p2

   TITEL  = PAW_PBE Si 05Jan2001
   POMASS =   28.085; ZVAL   =    4.000    mass and valenz
   ENMAX  =  245.345; ENMIN  =  184.009 eV
   QCUT   =   -4.246; QGAM   =    8.493    optimization parameters

   Description
     l     E      TYP  RCUT    TYP  RCUT
     0   .000     23  1.900
     0   .000     23  1.900
     1   .000     23  1.900
     1   .000     23  1.900
     2   .000      7  1.900

 Optimization of the real space projectors (new method)

 maximal supplied QI-value         = 13.42
 optimisation between [QCUT,QGAM] = [ 11.40, 22.81] = [ 36.42,145.68] Ry
 Optimized for a Real-space Cutoff    1.56 Angstroem

   l    n(q)    QCUT    max X(q) W(low)/X(q) W(high)/X(q)  e(spline)
   0     11    11.404     7.198    0.14E-04    0.26E-04    0.99E-07
   0     11    11.404    15.603    0.29E-04    0.72E-04    0.44E-06
   1     10    11.404     3.746    0.20E-04    0.24E-04    0.43E-07
   1     10    11.404     4.362    0.22E-03    0.97E-04    0.22E-06
   2     10    11.404     5.782    0.83E-04    0.62E-05    0.27E-06
   2     10    11.404    65.505    0.42E-03    0.31E-04    0.12E-05
 Optimization of the real space projectors (new method)

 maximal supplied QI-value         = 19.84
 optimisation between [QCUT,QGAM] = [ 11.31, 22.82] = [ 35.82,145.81] Ry
 Optimized for a Real-space Cutoff    1.16 Angstroem

   l    n(q)    QCUT    max X(q) W(low)/X(q) W(high)/X(q)  e(spline)
   0      8    11.310     8.708    0.14E-04    0.11E-04    0.43E-08
   0      8    11.310   106.241    0.27E-03    0.30E-03    0.38E-07
   1      7    11.310     5.901    0.82E-05    0.48E-04    0.19E-07
   1      7    11.310    73.241    0.27E-03    0.27E-03    0.74E-07
 PAW_PBE Ba_sv 06Sep2000                :
 PAW_PBE Si 05Jan2001                   :

 POSCAR: ba8 si16
  positions in direct lattice
  velocities in cartesian coordinates
 exchange correlation table for  LEXCH =        8
   RHO(1)=    0.500       N(1)  =     2000
   RHO(2)=  100.500       N(2)  =     4000

 ion  position               nearest neighbor table
   1  0.006  0.250  0.706-  21 3.41  16 3.45  11 3.45  17 3.66  17 3.66   5 4.39   5 4.39   7 4.62

   2  0.374  0.750  0.294-  22 3.41  12 3.45  15 3.45  18 3.66  18 3.66   6 4.39   6 4.39   8 4.62

   3  0.182  0.750  0.187-  20 3.30  22 3.44   9 3.45  14 3.45  12 3.45  15 3.45  19 3.64  19 3.64
                            23 3.75   5 4.28   7 4.38   7 4.38
   4  0.197  0.250  0.813-  19 3.30  21 3.44  13 3.45  10 3.45  16 3.45  11 3.45  20 3.64  20 3.64
                            24 3.75   6 4.28   8 4.38   8 4.38
   5  0.060  0.750  0.918-   9 3.44  14 3.44  21 3.45  21 3.45  11 3.50  16 3.50  17 3.76  20 3.92
                             3 4.28   1 4.39   1 4.39
   6  0.320  0.250  0.082-  13 3.44  10 3.44  22 3.45  22 3.45  15 3.50  12 3.50  18 3.76  19 3.92
                             4 4.28   2 4.39   2 4.39
   7  0.128  0.250  0.398-  14 3.43   9 3.43  23 3.53  23 3.53  15 3.56  12 3.56  24 3.62  19 3.70
                            16 3.74  11 3.74   3 4.38   3 4.38   1 4.62
   8  0.252  0.750  0.602-  10 3.43  13 3.43  24 3.53  24 3.53  11 3.56  16 3.56  23 3.62  20 3.70
                            12 3.74  15 3.74   4 4.38   4 4.38   2 4.62
   9  0.073  0.073  0.145-  14 2.40  21 2.43  19 2.44   7 3.43   5 3.44   3 3.45
  10  0.307  0.927  0.855-  13 2.40  22 2.43  20 2.44   8 3.43   6 3.44   4 3.45
  11  0.115  0.928  0.659-  16 2.41  23 2.43  17 2.44   4 3.45   1 3.45   5 3.50   8 3.56   7 3.74

[...]

  21  0.074  0.250  0.964-  14 2.43   9 2.43  19 2.43   1 3.41   4 3.44   5 3.45   5 3.45
  22  0.305  0.750  0.036-  10 2.43  13 2.43  20 2.43   2 3.41   3 3.44   6 3.45   6 3.45
  23  0.113  0.750  0.477-  11 2.43  16 2.43  17 2.44   7 3.53   7 3.53   8 3.62   3 3.75
  24  0.266  0.250  0.523-  15 2.43  12 2.43  18 2.44   8 3.53   8 3.53   7 3.62   4 3.75

  LATTYP: Found a simple orthorhombic cell.
 ALAT       =     6.7778496742
 B/A-ratio  =     1.7117734747
 C/A-ratio  =     3.5423429602

  Lattice vectors:

 A1 = (   0.0000000000,   6.7778496742,   0.0000000000)
 A2 = (   0.0000000000,   0.0000000000, -11.6021432877)
 A3 = ( -24.0094680786,   0.0000000000,   0.0000000000)

Analysis of symmetry for initial positions (statically):
 Subroutine PRICEL returns:
 Original cell was already a primitive cell.

 Routine SETGRP: Setting up the symmetry group for a
 simple orthorhombic supercell.

 Subroutine GETGRP returns: Found  4 space group operations
 (whereof  1 operations were pure point group operations)
 out of a pool of  8 trial point group operations.

The static configuration has the point symmetry C_1 .
 The point group associated with its full space group is C_2h.

Analysis of symmetry for dynamics (positions and initial velocities):
 Subroutine PRICEL returns:
 Original cell was already a primitive cell.

[...]

The dynamic configuration has the point symmetry C_1 .
 The point group associated with its full space group is C_2h.

Analysis of constrained symmetry for selective dynamics:
 Subroutine PRICEL returns:
 Original cell was already a primitive cell.

 Routine SETGRP: Setting up the symmetry group for a
 simple orthorhombic supercell.

 Subroutine GETGRP returns: Found  4 space group operations
 (whereof  1 operations were pure point group operations)
 out of a pool of  8 trial point group operations.

The constrained configuration has the point symmetry C_1 .
 The point group associated with its full space group is C_2h.

 Subroutine INISYM returns: Found  4 space group operations
 (whereof  1 operations are pure point group operations),
 and found     1 'primitive' translations

 KPOINTS: k-density: 8.0

Automatic generation of k-mesh.
Space group operators:
 irot       det(A)        alpha          n_x          n_y          n_z        tau_x        tau_y        tau_z
    1     1.000000     0.000000     1.000000     0.000000     0.000000     0.000000     0.000000     0.000000
    2    -1.000000     0.000000     1.000000     0.000000     0.000000    -0.620589     0.000000     0.000000
    3     1.000000   180.000000     0.000000     1.000000     0.000000    -0.620589     0.500000     0.000000
    4    -1.000000   180.000000     0.000000     1.000000     0.000000     0.000000     0.500000     0.000000

 Subroutine IBZKPT returns following result:

 Found     15 irreducible k-points:

 Following reciprocal coordinates:
            Coordinates               Weight
  0.000000  0.000000  0.000000      1.000000
  0.000000  0.125000  0.000000      2.000000
  0.000000  0.250000  0.000000      2.000000
  0.000000  0.375000  0.000000      2.000000
  0.000000  0.500000  0.000000      1.000000
  0.000000  0.000000  0.200000      2.000000
  0.000000  0.125000  0.200000      4.000000
  0.000000  0.250000  0.200000      4.000000
  0.000000  0.375000  0.200000      4.000000
  0.000000  0.500000  0.200000      2.000000
  0.000000  0.000000  0.400000      2.000000
  0.000000  0.125000  0.400000      4.000000
  0.000000  0.250000  0.400000      4.000000
  0.000000  0.375000  0.400000      4.000000
  0.000000  0.500000  0.400000      2.000000

 Following cartesian coordinates:
            Coordinates               Weight
  0.000000  0.000000  0.000000      1.000000
  0.000000  0.018442  0.000000      2.000000
  0.000000  0.036885  0.000000      2.000000
  0.000000  0.055327  0.000000      2.000000
  0.000000  0.073770  0.000000      1.000000
  0.000000  0.000000  0.017238      2.000000
  0.000000  0.018442  0.017238      4.000000
  0.000000  0.036885  0.017238      4.000000
  0.000000  0.055327  0.017238      4.000000
  0.000000  0.073770  0.017238      2.000000
  0.000000  0.000000  0.034476      2.000000
  0.000000  0.018442  0.034476      4.000000
  0.000000  0.036885  0.034476      4.000000
  0.000000  0.055327  0.034476      4.000000
  0.000000  0.073770  0.034476      2.000000

 TETIRR: Found    108 inequivalent tetrahedra from      240

 SYSTEM =  unknown system
 POSCAR =  ba8 si16

 Startparameter for this run:
   NWRITE =      2    write-flag & timer
   PREC   = normal    normal or accurate (medium, high low for compatibility)
   ISTART =      0    job   : 0-new  1-cont  2-samecut
   ICHARG =      2    charge: 1-file 2-atom 10-const
   ISPIN  =      1    spin polarized calculation?
   LNONCOLLINEAR =      F non collinear calculations
   LSORBIT =      F    spin-orbit coupling
   INIWAV =      1    electr: 0-lowe 1-rand  2-diag
   LASPH  =      F    aspherical Exc in radial PAW
   METAGGA=      F    non-selfconsistent MetaGGA calc.

 Electronic Relaxation 1
   ENCUT  =  500.0 eV  36.75 Ry    6.06 a.u.  43.77 12.36 21.15*2*pi/ulx,y,z
   ENINI  =  500.0     initial cutoff
   ENAUG  =  351.2 eV  augmentation charge cutoff
   NELM   =    100;   NELMIN=  2; NELMDL= -5     # of ELM steps
   EDIFF  = 0.1E-05   stopping-criterion for ELM
   LREAL  =      T    real-space projection
   NLSPLINE    = F    spline interpolate recip. space projectors
   LCOMPAT=      F    compatible to vasp.4.4
   GGA_COMPAT  = T    GGA compatible to vasp.4.4-vasp.4.6
   LMAXPAW     = -100 max onsite density
   LMAXMIX     =    2 max onsite mixed and CHGCAR
   VOSKOWN=      0    Vosko Wilk Nusair interpolation
   ROPT   =   -0.00050  -0.00050
 Ionic relaxation
   EDIFFG = -.1E-02   stopping-criterion for IOM
   NSW    =      0    number of steps for IOM
   NBLOCK =      1;   KBLOCK =      1    inner block; outer block
   IBRION =     -1    ionic relax: 0-MD 1-quasi-New 2-CG
   NFREE  =      0    steps in history (QN), initial steepest desc. (CG)
   ISIF   =      2    stress and relaxation
   IWAVPR =     10    prediction:  0-non 1-charg 2-wave 3-comb
   ISYM   =      2    0-nonsym 1-usesym 2-fastsym
   LCORR  =      T    Harris-Foulkes like correction to forces

   POTIM  = 0.3000    time-step for ionic-motion
   TEIN   =    0.0    initial temperature
   TEBEG  =    0.0;   TEEND  =   0.0 temperature during run
   SMASS  =  -3.00    Nose mass-parameter (am)
   estimated Nose-frequenzy (Omega)   =  0.10E-29 period in steps =****** mass=  -0.132E-25a.u.
   SCALEE = 1.0000    scale energy and forces
   NPACO  =    256;   APACO  = 16.0  distance and # of slots for P.C.
   PSTRESS=    0.0 pullay stress

  Mass of Ions in am
   POMASS = 137.33 28.09
  Ionic Valenz
   ZVAL   =  10.00  4.00
  Atomic Wigner-Seitz radii
  virtual crystal weights
   VCA    =   1.00  1.00
   NELECT =     144.0000    total number of electrons
   NUPDOWN=      -1.0000    fix difference up-down

[...]

 BZINTS: Fermi energy:  7.083060;144.000000 electrons
         Band energy:-463.201319;  BLOECHL correction: -0.026262

 eigenvalue-minimisations  :  2768
 total energy-change (2. order) : 0.1193076E+04  (-0.4787434E+04)
 number of electron     144.0000000 magnetization
 augmentation part      144.0000000 magnetization

 Free energy of the ion-electron system (eV)
  alpha Z        PSCENC =       170.45750602
  Ewald energy   TEWEN  =     12322.73363761
  -Hartree energ DENC   =    -18432.26450767
  -exchange      EXHF   =         0.00000000
  -V(xc)+E(xc)   XCENC  =        42.83133337
  PAW double counting   =      3692.15173346    -3390.49189382
  entropy T*S    EENTRO =         0.00000000
  eigenvalues    EBANDS =      -463.20131872
  atomic energy  EATOM  =      7250.85976021
  Solvation  Ediel_sol  =         0.00000000
  free energy    TOTEN  =      1193.07625046 eV

  energy without entropy =     1193.07625046  energy(sigma->0) =     1193.07625046

[...]

 eigenvalue-minimisations  :  3784
 total energy-change (2. order) :-0.1130305E+04  (-0.1100183E+04)
 number of electron     144.0000000 magnetization
 augmentation part      144.0000000 magnetization

[...]

 Broyden mixing:
  rms(total) = 0.90877E+00    rms(broyden)= 0.90876E+00
  rms(prec ) = 0.11943E+01
  weight for this iteration     100.00

[...]

 eigenvalues of (default mixing * dielectric matrix)
  average eigenvalue GAMMA=   1.5359
  1.5359

[...]

 eigenvalue-minimisations  :  3104
 total energy-change (2. order) : 0.8945926E-02  (-0.6625353E-02)
 number of electron     144.0000004 magnetization
 augmentation part      -17.6709788 magnetization

[...]

 Broyden mixing:
  rms(total) = 0.61302E-05    rms(broyden)= 0.61302E-05
  rms(prec ) = 0.89358E-05
  weight for this iteration     100.00

 eigenvalues of (default mixing * dielectric matrix)
  average eigenvalue GAMMA=   2.3364
  9.1312  7.0188  3.9210  3.9210  2.8950  2.5128  1.8976  1.8976  1.5023  1.5023
  0.9149  0.9149  1.2249  1.2249  1.1482  1.1482  1.0661  0.9699  0.9699  0.9467

[...]

--------------------------------------- Iteration      1(  26)  ---------------------------------------

 BZINTS: Fermi energy: -0.390974;144.000000 electrons
         Band energy:***********;  BLOECHL correction:  0.000000

 eigenvalue-minimisations  :  1944
 total energy-change (2. order) :-0.2064135E-06  (-0.5181334E-08)
 number of electron     144.0000004 magnetization
 augmentation part      -17.6692399 magnetization

 Free energy of the ion-electron system (eV)
  alpha Z        PSCENC =       170.45750602
  Ewald energy   TEWEN  =     12322.73363761
  -Hartree energ DENC   =    -18753.93143033
  -exchange      EXHF   =         0.00000000
  -V(xc)+E(xc)   XCENC  =        50.00720633
  PAW double counting   =      3831.83205992    -3545.63712970
  entropy T*S    EENTRO =         0.00000000
  eigenvalues    EBANDS =     -1431.55899756
  atomic energy  EATOM  =      7250.85976021
  Solvation  Ediel_sol  =         0.00000000
  free energy    TOTEN  =      -105.23738750 eV

  energy without entropy =     -105.23738750  energy(sigma->0) =     -105.23738750

 average (electrostatic) potential at core
  the test charge radii are     1.2192  0.9892
  (the norm of the test charge is              1.0000)
       1 -41.9205       2 -41.9205       3 -40.0669       4 -40.0669       5 -40.8396
       6 -40.8396       7 -40.7210       8 -40.7211       9 -88.7649      10 -88.7649
      11 -89.2092      12 -89.2092      13 -88.7649      14 -88.7649      15 -89.2092
      16 -89.2092      17 -89.2796      18 -89.2796      19 -88.7935      20 -88.7935
      21 -88.9117      22 -88.9117      23 -89.2048      24 -89.2048

 E-fermi :  -0.3910     XC(G=0):  -3.9662     alpha+bet : -3.8451

 k-point     1 :       0.0000    0.0000    0.0000
  band No.  band energies     occupation
      1     -29.5335      2.00000
      2     -29.5334      2.00000
      3     -28.4820      2.00000
      4     -28.4820      2.00000
      5     -28.3551      2.00000
      6     -28.3523      2.00000
      7     -27.7458      2.00000
      8     -27.7448      2.00000
      9     -14.8747      2.00000
     10     -14.8741      2.00000
     11     -14.8017      2.00000
     12     -14.8015      2.00000
     13     -14.7239      2.00000
     14     -14.7239      2.00000
     15     -13.9092      2.00000
     16     -13.9067      2.00000
     17     -13.7789      2.00000
     18     -13.7751      2.00000
     19     -13.7365      2.00000
     20     -13.7321      2.00000
     21     -13.7269      2.00000
     22     -13.7172      2.00000
     23     -13.6828      2.00000
     24     -13.6573      2.00000
     25     -13.6442      2.00000
     26     -13.6126      2.00000
     27     -13.1541      2.00000
     28     -13.1280      2.00000
     29     -13.0956      2.00000
     30     -13.0893      2.00000
     31     -13.0662      2.00000
     32     -13.0560      2.00000
     33     -11.0933      2.00000
     34     -11.0274      2.00000
     35     -10.6761      2.00000
     36     -10.6454      2.00000
     37      -6.3666      2.00000
     38      -6.3594      2.00000
     39      -6.1621      2.00000
     40      -6.1593      2.00000
     41      -6.1524      2.00000
     42      -6.1391      2.00000
     43      -5.9421      2.00000
     44      -5.9204      2.00000
     45      -5.7850      2.00000
     46      -5.6177      2.00000
     47      -5.6049      2.00000
     48      -5.6018      2.00000
     49      -3.5211      2.00000
     50      -3.0358      2.00000
     51      -2.5421      2.00000
     52      -2.5352      2.00000
     53      -2.4482      2.00000
     54      -2.1313      2.00000
     55      -1.9242      2.00000
     56      -1.8778      2.00000
     57      -1.7968      2.00000
     58      -1.7707      2.00000
     59      -1.7385      2.00000
     60      -1.6540      2.00000
[...]
     74       0.5176      0.00000
     75       0.5991      0.00000
     76       0.7648      0.00000
     77       0.7820      0.00000
     78       0.8652      0.00000
     79       1.0459      0.00000
     80       1.2629      0.00000
     81       1.2951      0.00000
     82       1.3303      0.00000
     83       1.4246      0.00000
     84       1.4343      0.00000
     85       1.4893      0.00000
     86       1.5475      0.00000
     87       1.6372      0.00000
     88       1.7142      0.00000

[...]

 k-point    15 :       0.0000    0.5000    0.4000
  band No.  band energies     occupation
      1     -29.5333      2.00000
      2     -29.5333      2.00000
      3     -28.4820      2.00000
      4     -28.4820      2.00000
      5     -28.3536      2.00000
      6     -28.3535      2.00000
      7     -27.7454      2.00000
      8     -27.7454      2.00000
      9     -14.8712      2.00000
     10     -14.8712      2.00000
     11     -14.8063      2.00000
     12     -14.8063      2.00000
     13     -14.7373      2.00000
     14     -14.7373      2.00000
     15     -13.9025      2.00000
     16     -13.9025      2.00000
     17     -13.7793      2.00000
     18     -13.7793      2.00000
     19     -13.7616      2.00000
     20     -13.7616      2.00000
     21     -13.7257      2.00000
     22     -13.7257      2.00000
     23     -13.6944      2.00000
     24     -13.6944      2.00000
     25     -13.6186      2.00000
     26     -13.6186      2.00000
     27     -13.1368      2.00000
     28     -13.1368      2.00000
     29     -13.0935      2.00000
     30     -13.0935      2.00000
     31     -13.0609      2.00000
     32     -13.0609      2.00000
     33     -11.0109      2.00000
     34     -11.0109      2.00000
     35     -10.6047      2.00000
     36     -10.6047      2.00000
     37      -6.4367      2.00000
     38      -6.4367      2.00000
     39      -6.1404      2.00000
     40      -6.1404      2.00000
     41      -6.0973      2.00000
     42      -6.0973      2.00000
     43      -5.8019      2.00000
     44      -5.8019      2.00000
     45      -5.7626      2.00000
     46      -5.7625      2.00000
     47      -5.6294      2.00000
     48      -5.6294      2.00000
     49      -2.6939      2.00000
     50      -2.6939      2.00000
     51      -2.5129      2.00000
     52      -2.5129      2.00000
     53      -2.1559      2.00000
     54      -2.1559      2.00000
     55      -2.0957      2.00000
     56      -2.0957      2.00000
     57      -1.8935      2.00000
     58      -1.8935      2.00000
     59      -1.6895      2.00000
     60      -1.6895      2.00000
[...]
     74       0.3264      0.00000
     75       0.5672      0.00000
     76       0.5672      0.00000
     77       0.7416      0.00000
     78       0.7416      0.00000
     79       0.9331      0.00000
     80       0.9331      0.00000
     81       0.9979      0.00000
     82       0.9979      0.00000
     83       1.3505      0.00000
     84       1.3505      0.00000
     85       1.5336      0.00000
     86       1.5336      0.00000
     87       1.6348      0.00000
     88       1.6348      0.00000

 soft charge-density along one line, spin component           1
         0         1         2         3         4         5         6         7         8         9
 total charge-density along one line

------------------------ aborting loop because EDIFF is reached ----------------------------------------

  FORCE on cell =-STRESS in cart. coord.  units (eV):
  Direction    XX          YY          ZZ          XY          YZ          ZX
  Alpha Z   170.45751   170.45751   170.45751
  Ewald  -20095.59985 16476.65184 15941.66796    -0.00002     0.00000   142.74495
  Hartree-17024.52782 18099.44150 17679.01476     0.00000    -0.00000   107.92849
  E(xc)    -462.29586  -460.58140  -460.97305    -0.00000    -0.00000     0.21258
  Local   35703.92980-36011.24640-35047.59740     0.00001    -0.00000  -248.26300
  n-local   339.07397   339.26911   339.81069     0.05842    -0.19585    -1.76879
  augment  -169.36823  -169.67569  -169.53853    -0.00000    -0.00000     0.34901
  Kinetic  1532.05220  1547.23048  1539.53533    -0.02837    -0.81646    -1.12970
  Fock        0.00000     0.00000     0.00000     0.00000     0.00000     0.00000
  Total      -6.27828    -8.45305    -7.62274     0.00000     0.00000     0.07355
  in kB      -5.32769    -7.17317    -6.46858     0.00000     0.00000     0.06241

 VOLUME and BASIS-vectors are now :
  energy-cutoff  :      500.00
  volume of cell :     1888.05
      direct lattice vectors                 reciprocal lattice vectors
    24.009468079  0.000000000  0.000000000     0.041650236  0.000000000  0.000000000
     0.000000000  6.777849674  0.000000000     0.000000000  0.147539419  0.000000000
     0.000000000  0.000000000 11.602143288     0.000000000  0.000000000  0.086190971

  length of vectors
    24.009468079  6.777849674 11.602143288     0.041650236  0.147539419  0.086190971

 FORCES acting on ions
    electron-ion (+dipol)            ewald-force                    non-local-force                 convergence-correction
   0.792E+03 0.102E-04 0.439E+02   -.787E+03 0.983E-05 -.431E+02   -.426E+01 0.593E-18 -.827E+00   0.558E-04 -.689E-09 0.562E-05
   -.792E+03 -.632E-04 -.439E+02   0.787E+03 -.127E-04 0.431E+02   0.426E+01 0.494E-18 0.827E+00   -.558E-04 0.732E-09 -.561E-05
   0.773E+02 -.598E-04 -.356E+02   -.770E+02 -.192E-04 0.343E+02   -.313E+00 -.371E-19 0.125E+01   0.668E-04 0.113E-08 -.458E-04
   -.773E+02 0.119E-04 0.356E+02   0.770E+02 0.133E-04 -.343E+02   0.313E+00 -.114E-19 -.125E+01   -.668E-04 -.105E-08 0.458E-04
   0.638E+03 -.611E-04 -.498E+02   -.635E+03 -.168E-04 0.503E+02   -.204E+01 0.213E-17 -.522E+00   0.127E-03 0.912E-09 -.522E-04
   -.638E+03 0.904E-05 0.498E+02   0.635E+03 0.147E-04 -.503E+02   0.204E+01 0.251E-17 0.522E+00   -.127E-03 -.872E-09 0.521E-04
   0.371E+03 0.124E-04 -.739E+01   -.369E+03 0.135E-04 0.657E+01   -.120E+01 -.177E-17 0.823E+00   0.109E-03 -.102E-08 0.983E-05
   -.371E+03 -.614E-04 0.739E+01   0.369E+03 -.135E-04 -.657E+01   0.120E+01 0.198E-17 -.823E+00   -.109E-03 0.101E-08 -.982E-05
   0.277E+03 0.367E+02 -.467E+02   -.277E+03 -.382E+02 0.476E+02   -.944E-01 0.151E+01 -.885E+00   0.811E-04 0.436E-04 -.396E-04
   -.277E+03 -.367E+02 0.467E+02   0.277E+03 0.382E+02 -.476E+02   0.944E-01 -.151E+01 0.885E+00   -.811E-04 -.436E-04 0.396E-04
   0.127E+03 -.322E+02 0.280E+01   -.126E+03 0.333E+02 -.182E+01   -.596E+00 -.113E+01 -.973E+00   0.282E-04 -.274E-04 -.113E-05
   -.127E+03 0.322E+02 -.280E+01   0.126E+03 -.333E+02 0.182E+01   0.596E+00 0.113E+01 0.973E+00   -.282E-04 0.274E-04 0.113E-05
   -.277E+03 0.367E+02 0.467E+02   0.277E+03 -.382E+02 -.476E+02   0.944E-01 0.151E+01 0.885E+00   -.811E-04 0.436E-04 0.396E-04
   0.277E+03 -.367E+02 -.467E+02   -.277E+03 0.382E+02 0.476E+02   -.944E-01 -.151E+01 -.885E+00   0.811E-04 -.436E-04 -.396E-04
   -.127E+03 -.322E+02 -.280E+01   0.126E+03 0.333E+02 0.182E+01   0.596E+00 -.113E+01 0.973E+00   -.282E-04 -.274E-04 0.113E-05
   0.127E+03 0.322E+02 0.280E+01   -.126E+03 -.333E+02 -.182E+01   -.596E+00 0.113E+01 -.973E+00   0.282E-04 0.274E-04 -.113E-05
   0.335E+03 -.424E-05 0.458E+02   -.337E+03 -.606E-05 -.464E+02   0.137E+01 -.104E-18 0.643E+00   0.629E-04 0.300E-09 0.223E-04
   -.335E+03 0.614E-05 -.458E+02   0.337E+03 0.631E-05 0.464E+02   -.137E+01 0.806E-20 -.643E+00   -.629E-04 -.306E-09 -.223E-04
   0.320E+02 0.102E-04 -.111E+02   -.305E+02 0.773E-05 0.103E+02   -.136E+01 -.306E-18 0.765E+00   -.147E-04 -.421E-09 -.152E-04
   -.320E+02 -.101E-05 0.111E+02   0.305E+02 -.738E-05 -.103E+02   0.136E+01 -.230E-18 -.765E+00   0.147E-04 0.395E-09 0.152E-04
   0.247E+03 0.444E-05 0.979E+01   -.246E+03 0.813E-05 -.110E+02   -.701E+00 0.250E-17 0.118E+01   0.765E-04 -.367E-09 0.284E-04
   -.247E+03 -.558E-05 -.979E+01   0.246E+03 -.817E-05 0.110E+02   0.701E+00 0.196E-17 -.118E+01   -.765E-04 0.348E-09 -.284E-04
   0.161E+03 -.625E-05 0.615E+02   -.160E+03 -.768E-05 -.631E+02   -.849E+00 -.207E-17 0.167E+01   0.362E-04 0.383E-09 0.462E-04
   -.161E+03 0.375E-05 -.615E+02   0.160E+03 0.749E-05 0.631E+02   0.849E+00 0.142E-17 -.167E+01   -.362E-04 -.383E-09 -.462E-04
   0.612E-04 -.206E-03 0.647E-04   -.568E-13 0.532E-14 0.497E-13   0.333E-15 0.317E-17 0.222E-15   -.215E-07 0.685E-10 -.302E-08

 POSITION                                       TOTAL-FORCE (eV/Angst)
      0.13670      1.69446      8.19339         0.750643     -0.000000     -0.000373
      8.97277      5.08339      3.40876        -0.750643     -0.000000      0.000373
      4.36803      5.08339      2.16622        -0.082410     -0.000000      0.000317
      4.74143      1.69446      9.43593         0.082410     -0.000000     -0.000317
      1.43529      5.08339     10.65557         0.693466     -0.000000      0.000841
      7.67418      1.69446      0.94657        -0.693466     -0.000000     -0.000841
      3.06944      1.69446      4.61923         0.302777     -0.000000      0.000431
      6.04002      5.08339      6.98291        -0.302777     -0.000000     -0.000431
      1.75027      0.49332      1.68677        -0.153675      0.000176     -0.000120
      7.35920      6.28453      9.91538         0.153675     -0.000176      0.000120
      2.75446      6.28989      7.64605         0.029899     -0.000057      0.000725
      6.35500      0.48796      3.95610        -0.029899      0.000057     -0.000725
      7.35920      3.88225      9.91538         0.153675      0.000176      0.000120
      1.75027      2.89560      1.68677        -0.153675     -0.000176     -0.000120
      6.35500      2.90097      3.95610        -0.029899     -0.000057     -0.000725
      2.75446      3.87688      7.64605         0.029899      0.000057      0.000725
      0.74693      5.08339      6.96022        -0.233937     -0.000000      0.000260
      8.36254      1.69446      4.64192         0.233937     -0.000000     -0.000260
      3.75780      1.69446      0.98802         0.173070     -0.000000     -0.000045
      5.35166      5.08339     10.61412        -0.173070     -0.000000      0.000045
      1.78112      1.69446     11.17948        -0.275585     -0.000000      0.000567
      7.32835      5.08339      0.42266         0.275585     -0.000000     -0.000567
      2.72362      5.08339      5.53563        -0.289714     -0.000000     -0.000311
      6.38585      1.69446      6.06651         0.289714     -0.000000      0.000311
    total drift:                                0.000061     -0.000206      0.000065

  FREE ENERGIE OF THE ION-ELECTRON SYSTEM (eV)
  free  energy   TOTEN  =      -105.23738750 eV

  energy  without entropy=     -105.23738750  energy(sigma->0) =     -105.23738750

 writing wavefunctions
 BZINTS: Fermi energy: -0.390974;144.000000 electrons
         Band energy:***********;  BLOECHL correction:  0.000000