 vasp.5.4.4.18Apr17-6-g9f103f2a35 (build Nov 21 2017 15:30:27) complex

 executed on             LinuxIFC date 2020.12.16  17:49:25

 INCAR:
 POTCAR:   PAW Ba_sv 17Apr2000
 POTCAR:   PAW Si 02Apr1999

 POTCAR:   PAW Ba_sv 17Apr2000
   VRHFIN =Ba: s2p6s2

   TITEL  = PAW Ba_sv 17Apr2000
   POMASS =  137.327; ZVAL   =   10.000    mass and valenz
   ENMAX  =  186.981; ENMIN  =  140.236 eV
   QCUT   =   -3.707; QGAM   =    7.414    optimization parameters

   Description
     l     E      TYP  RCUT    TYP  RCUT
     0   .000     23  2.800
     0   .000     23  2.800
     1   .000     23  2.700
     1  2.000     23  2.700
     2   .000     23  2.700
     2   .000     23  2.700

 POTCAR:   PAW Si 02Apr1999
   VRHFIN =Si: s2p2

   TITEL  = PAW Si 02Apr1999
   POMASS =   28.085; ZVAL   =    4.000    mass and valenz
   ENMAX  =  245.704; ENMIN  =  184.278 eV
   QCUT   =   -4.250; QGAM   =    8.499    optimization parameters

   Description
     l     E      TYP  RCUT    TYP  RCUT
     0   .000     23  1.900
     0   .000     23  1.900
     1   .000     23  1.900
     1   .000     23  1.900
     2   .000      7  1.900

 Optimization of the real space projectors (new method)

 maximal supplied QI-value         = 13.42
 optimisation between [QCUT,QGAM] = [ 11.40, 22.81] = [ 36.42,145.68] Ry
 Optimized for a Real-space Cutoff    1.56 Angstroem

   l    n(q)    QCUT    max X(q) W(low)/X(q) W(high)/X(q)  e(spline)
   0     11    11.404     7.180    0.12E-04    0.23E-04    0.91E-07
   0     11    11.404    14.700    0.33E-04    0.82E-04    0.45E-06
   1     10    11.404     3.780    0.19E-04    0.22E-04    0.42E-07
   1     10    11.404     4.341    0.22E-03    0.98E-04    0.21E-06
   2     10    11.404     5.806    0.81E-04    0.60E-05    0.26E-06
   2     10    11.404    65.524    0.41E-03    0.30E-04    0.12E-05
 Optimization of the real space projectors (new method)

 maximal supplied QI-value         = 19.84
 optimisation between [QCUT,QGAM] = [ 11.31, 22.82] = [ 35.82,145.81] Ry
 Optimized for a Real-space Cutoff    1.16 Angstroem

   l    n(q)    QCUT    max X(q) W(low)/X(q) W(high)/X(q)  e(spline)
   0      8    11.310     8.540    0.14E-04    0.11E-04    0.43E-08
   0      8    11.310   104.916    0.28E-03    0.31E-03    0.39E-07
   1      7    11.310     5.806    0.79E-05    0.47E-04    0.19E-07
   1      7    11.310    72.249    0.28E-03    0.28E-03    0.75E-07
 PAW Ba_sv 17Apr2000                    :
 PAW Si 02Apr1999                       :

 POSCAR: ba8 si16
  positions in cartesian coordinates
 exchange correlation table for  LEXCH =        2
   RHO(1)=    0.500       N(1)  =     2000
   RHO(2)=  100.500       N(2)  =     4000

 ion  position               nearest neighbor table
   1  0.015  0.250  0.691-  24 3.40  18 3.40  13 3.45  10 3.45  16 3.45  11 3.45  21 3.60  17 3.63
                            17 3.63   5 4.41   5 4.41   7 4.42   4 4.71   4 4.71
   2  0.985  0.750  0.309-  23 3.40  17 3.40   9 3.45  14 3.45  12 3.45  15 3.45  22 3.60  18 3.63
                            18 3.63   6 4.41   6 4.41   8 4.42   3 4.71   3 4.71
   3  0.485  0.750  0.191-  22 3.40  20 3.40  12 3.45  15 3.45   9 3.45  14 3.45  23 3.60  19 3.63
                            19 3.63   7 4.41   7 4.41   5 4.42   2 4.71   2 4.71
   4  0.515  0.250  0.809-  21 3.40  19 3.40  16 3.45  11 3.45  13 3.45  10 3.45  24 3.60  20 3.63
                            20 3.63   8 4.41   8 4.41   6 4.42   1 4.71   1 4.71
   5  0.159  0.750  0.907-  10 3.46  13 3.46  21 3.48  21 3.48  11 3.50  16 3.50  22 3.54   9 3.55
                            14 3.55  17 3.71  20 3.82   1 4.41   1 4.41   3 4.42
   6  0.841  0.250  0.093-  14 3.46   9 3.46  22 3.48  22 3.48  15 3.50  12 3.50  21 3.54  13 3.55
                            10 3.55  18 3.71  19 3.82   2 4.41   2 4.41   4 4.42
   7  0.341  0.250  0.407-  15 3.46  12 3.46  23 3.48  23 3.48  14 3.50   9 3.50  24 3.54  16 3.55
                            11 3.55  19 3.71  18 3.82   3 4.41   3 4.41   1 4.42
   8  0.659  0.750  0.593-  11 3.46  16 3.46  24 3.48  24 3.48  10 3.50  13 3.50  23 3.54  12 3.55
                            15 3.55  20 3.71  17 3.82   4 4.41   4 4.41   2 4.42
   9  0.194  0.073  0.147-  14 2.41  21 2.41  19 2.42   2 3.45   3 3.45   6 3.46   7 3.50   5 3.55

  10  0.806  0.927  0.853-  13 2.41  22 2.41  20 2.42   1 3.45   4 3.45   5 3.46   8 3.50   6 3.55

[...]

  24  0.698  0.250  0.533-  15 2.41  12 2.41  18 2.45   1 3.40   8 3.48   8 3.48   7 3.54   4 3.60

  LATTYP: Found a simple orthorhombic cell.
 ALAT       =     6.7778496742
 B/A-ratio  =     1.3292516818
 C/A-ratio  =     1.7117734747

  Lattice vectors:

 A1 = (   0.0000000000,  -6.7778496742,   0.0000000000)
 A2 = (  -9.0094680786,   0.0000000000,   0.0000000000)
 A3 = (   0.0000000000,   0.0000000000, -11.6021432877)

Analysis of symmetry for initial positions (statically):
 Subroutine PRICEL returns:
 Original cell was already a primitive cell.

 Routine SETGRP: Setting up the symmetry group for a
 simple orthorhombic supercell.

 Subroutine GETGRP returns: Found  8 space group operations
 (whereof  2 operations were pure point group operations)
 out of a pool of  8 trial point group operations.

The static configuration has the point symmetry S_2 .
 The point group associated with its full space group is D_2h.

Analysis of symmetry for dynamics (positions and initial velocities):
 Subroutine PRICEL returns:
 Original cell was already a primitive cell.

 Routine SETGRP: Setting up the symmetry group for a
 simple orthorhombic supercell.

 Subroutine GETGRP returns: Found  8 space group operations
 (whereof  2 operations were pure point group operations)
 out of a pool of  8 trial point group operations.

The dynamic configuration has the point symmetry S_2 .
 The point group associated with its full space group is D_2h.

 Subroutine INISYM returns: Found  8 space group operations
 (whereof  2 operations are pure point group operations),
 and found     1 'primitive' translations

 KPOINTS: k-density: 6.0

Automatic generation of k-mesh.
Space group operators:
 irot       det(A)        alpha          n_x          n_y          n_z        tau_x        tau_y        tau_z
    1     1.000000     0.000000     1.000000     0.000000     0.000000     0.000000     0.000000     0.000000
    2    -1.000000     0.000000     1.000000     0.000000     0.000000     0.000000     0.000000     0.000000
    3     1.000000   180.000000     0.000000     0.000000     1.000000    -0.500000     0.000000    -0.500000
    4    -1.000000   180.000000     0.000000     0.000000     1.000000    -0.500000     0.000000    -0.500000
    5     1.000000   180.000000     1.000000     0.000000     0.000000    -0.500000    -0.500000    -0.500000
    6    -1.000000   180.000000     1.000000     0.000000     0.000000    -0.500000    -0.500000    -0.500000
    7     1.000000   180.000000     0.000000     1.000000     0.000000    -0.000000    -0.500000    -0.000000
    8    -1.000000   180.000000     0.000000     1.000000     0.000000     0.000000    -0.500000     0.000000

 Subroutine IBZKPT returns following result:

 Found     36 irreducible k-points:

 Following reciprocal coordinates:
            Coordinates               Weight
  0.000000  0.000000  0.000000      1.000000
  0.200000  0.000000  0.000000      2.000000
  0.400000  0.000000  0.000000      2.000000
  0.000000  0.166667  0.000000      2.000000
  0.200000  0.166667  0.000000      4.000000
  0.400000  0.166667  0.000000      4.000000
  0.000000  0.333333  0.000000      2.000000
  0.200000  0.333333  0.000000      4.000000
  0.400000  0.333333  0.000000      4.000000
  0.000000  0.500000  0.000000      1.000000
  0.200000  0.500000  0.000000      2.000000
  0.400000  0.500000  0.000000      2.000000
  0.000000  0.000000  0.250000      2.000000
  0.200000  0.000000  0.250000      4.000000
  0.400000  0.000000  0.250000      4.000000
  0.000000  0.166667  0.250000      4.000000
  0.200000  0.166667  0.250000      8.000000
  0.400000  0.166667  0.250000      8.000000
  0.000000  0.333333  0.250000      4.000000
  0.200000  0.333333  0.250000      8.000000
  0.400000  0.333333  0.250000      8.000000
  0.000000  0.500000  0.250000      2.000000
  0.200000  0.500000  0.250000      4.000000
  0.400000  0.500000  0.250000      4.000000
  0.000000  0.000000  0.500000      1.000000
  0.200000  0.000000  0.500000      2.000000
  0.400000  0.000000  0.500000      2.000000
  0.000000  0.166667  0.500000      2.000000
  0.200000  0.166667  0.500000      4.000000
  0.400000  0.166667  0.500000      4.000000
  0.000000  0.333333  0.500000      2.000000
  0.200000  0.333333  0.500000      4.000000
  0.400000  0.333333  0.500000      4.000000
  0.000000  0.500000  0.500000      1.000000
  0.200000  0.500000  0.500000      2.000000
  0.400000  0.500000  0.500000      2.000000

 Following cartesian coordinates:
            Coordinates               Weight
  0.000000  0.000000  0.000000      1.000000
  0.022199  0.000000  0.000000      2.000000
  0.044398  0.000000  0.000000      2.000000
  0.000000  0.024590  0.000000      2.000000
  0.022199  0.024590  0.000000      4.000000
  0.044398  0.024590  0.000000      4.000000
  0.000000  0.049180  0.000000      2.000000
  0.022199  0.049180  0.000000      4.000000
  0.044398  0.049180  0.000000      4.000000
  0.000000  0.073770  0.000000      1.000000
  0.022199  0.073770  0.000000      2.000000
  0.044398  0.073770  0.000000      2.000000
  0.000000  0.000000  0.021548      2.000000
  0.022199  0.000000  0.021548      4.000000
  0.044398  0.000000  0.021548      4.000000
  0.000000  0.024590  0.021548      4.000000
  0.022199  0.024590  0.021548      8.000000
  0.044398  0.024590  0.021548      8.000000
  0.000000  0.049180  0.021548      4.000000
  0.022199  0.049180  0.021548      8.000000
  0.044398  0.049180  0.021548      8.000000
  0.000000  0.073770  0.021548      2.000000
  0.022199  0.073770  0.021548      4.000000
  0.044398  0.073770  0.021548      4.000000
  0.000000  0.000000  0.043095      1.000000
  0.022199  0.000000  0.043095      2.000000
  0.044398  0.000000  0.043095      2.000000
  0.000000  0.024590  0.043095      2.000000
  0.022199  0.024590  0.043095      4.000000
  0.044398  0.024590  0.043095      4.000000
  0.000000  0.049180  0.043095      2.000000
  0.022199  0.049180  0.043095      4.000000
  0.044398  0.049180  0.043095      4.000000
  0.000000  0.073770  0.043095      1.000000
  0.022199  0.073770  0.043095      2.000000
  0.044398  0.073770  0.043095      2.000000

 TETIRR: Found    360 inequivalent tetrahedra from      720

 SYSTEM =  unknown system
 POSCAR =  ba8 si16

 Startparameter for this run:
   NWRITE =      2    write-flag & timer
   PREC   = normal    normal or accurate (medium, high low for compatibility)
   ISTART =      0    job   : 0-new  1-cont  2-samecut
   ICHARG =      2    charge: 1-file 2-atom 10-const
   ISPIN  =      1    spin polarized calculation?
   LNONCOLLINEAR =      F non collinear calculations
   LSORBIT =      F    spin-orbit coupling
   INIWAV =      1    electr: 0-lowe 1-rand  2-diag
   LASPH  =      F    aspherical Exc in radial PAW
[...]
 g(Force)  = 0.253E-01   g(Stress)= 0.102E+01 ortho     = 0.000E+00
 gamma     =   0.00000
 trial     =   1.00000
 opt step  =   0.72025  (harmonic =   0.69718) maximal distance =0.00859981
 next E    =  -122.392888   (d E  =  -0.38641)

[...]

 d Force = 0.2265782E-01[ 0.171E-01, 0.282E-01]  d Energy = 0.6431979E-01-0.417E-01
 d Force = 0.1739678E+01[ 0.172E+01, 0.176E+01]  d Ewald  =-0.4696797E+02 0.487E+02

[...]

 d Force = 0.9987467E-01[ 0.385E-01, 0.161E+00]  d Energy = 0.1085743E+00-0.870E-02
 d Force = 0.1370446E+02[ 0.132E+02, 0.142E+02]  d Ewald  = 0.5211595E+02-0.384E+02

 Conjugate gradient step on ions:
 trial-energy change:   -0.108574  1 .order   -0.108161   -0.175772   -0.040550
  (g-gl).g = 0.187E+00      g.g   = 0.186E+00  gl.gl    = 0.104E+01
 g(Force)  = 0.183E+00   g(Stress)= 0.358E-02 ortho     =-0.370E-03
 gamma     =   0.17887
 trial     =   0.94405
 opt step  =   1.22059  (harmonic =   1.22715) maximal distance =0.02654288
 next E    =  -122.508970   (d E  =  -0.11452)

[...]

 Conjugate gradient step on ions:
 trial-energy change:   -0.002190  1 .order   -0.002189   -0.003490   -0.000889
  (g-gl).g = 0.980E-03      g.g   = 0.348E-02  gl.gl    = 0.186E+00
 g(Force)  = 0.286E-02   g(Stress)= 0.621E-03 ortho     = 0.160E-03
 gamma     =   0.00526
 trial     =   1.00300
 opt step  =   1.34559  (harmonic =   1.34559) maximal distance =0.00496216
 next E    =  -122.511752   (d E  =  -0.00234)

[...]

 d Force = 0.7940268E-03[ 0.506E-03, 0.108E-02]  d Energy = 0.1056078E-02-0.262E-03
 d Force =-0.1957551E+00[-0.198E+00,-0.194E+00]  d Ewald  = 0.1859287E+01-0.206E+01

[...]

 d Force = 0.1682400E-03[-0.446E-03, 0.782E-03]  d Energy = 0.5936956E-04 0.109E-03
 d Force =-0.3098867E+00[-0.314E+00,-0.306E+00]  d Ewald  = 0.2873961E+01-0.318E+01

[...]

 d Force = 0.7321557E-04[-0.512E-04, 0.198E-03]  d Energy = 0.1919467E-03-0.119E-03
 d Force = 0.1384617E+00[ 0.138E+00, 0.139E+00]  d Ewald  =-0.1273706E+01 0.141E+01

[...]

 d Force = 0.2109274E-03[-0.987E-04, 0.521E-03]  d Energy = 0.4118951E-03-0.201E-03
 d Force =-0.3705461E+00[-0.372E+00,-0.369E+00]  d Ewald  =-0.2070505E+01 0.170E+01

[...]

 d Force = 0.5017316E-05[-0.112E-04, 0.212E-04]  d Energy = 0.3100934E-04-0.260E-04
 d Force = 0.7967053E-01[ 0.796E-01, 0.798E-01]  d Ewald  = 0.4431148E+00-0.363E+00

[...]

 d Force = 0.2411766E-03[ 0.149E-03, 0.333E-03]  d Energy = 0.2159339E-03 0.252E-04
 d Force =-0.3691657E-01[-0.376E-01,-0.362E-01]  d Ewald  =-0.1219267E+01 0.118E+01

[...]

 d Force = 0.6280599E-04[ 0.285E-04, 0.971E-04]  d Energy = 0.2866904E-04 0.341E-04
 d Force =-0.2476834E-01[-0.251E-01,-0.245E-01]  d Ewald  =-0.7929705E+00 0.768E+00

[...]

 d Force = 0.3637877E-04[-0.428E-04, 0.116E-03]  d Energy = 0.9177792E-04-0.554E-04
 d Force =-0.1857283E+00[-0.186E+00,-0.185E+00]  d Ewald  = 0.1172431E+01-0.136E+01

 Conjugate gradient step on ions:
 trial-energy change:   -0.000092  1 .order   -0.000087   -0.000220    0.000047
  (g-gl).g = 0.183E-03      g.g   = 0.159E-03  gl.gl    = 0.195E-03
 g(Force)  = 0.543E-04   g(Stress)= 0.105E-03 ortho     =-0.117E-04
 gamma     =   0.93931
 trial     =   1.48551
 opt step  =   1.24785  (harmonic =   1.22542) maximal distance =0.00148101
 next E    =  -122.516977   (d E  =  -0.00010)

[...]

 d Force = 0.4033226E-05[ 0.122E-05, 0.685E-05]  d Energy = 0.4572505E-05-0.539E-06
 d Force = 0.2978683E-01[ 0.298E-01, 0.298E-01]  d Ewald  =-0.1875279E+00 0.217E+00

[...]

 real space projection operators:
  max/ min on nodes  :       1221.47       1125.41

[...]

 eigenvalue-minimisations  :  6336
 total energy-change (2. order) :-0.8951643E-04  (-0.4917034E-03)
 number of electron     144.0000013 magnetization
 augmentation part      -17.1116294 magnetization

[...]

 Broyden mixing:
  rms(total) = 0.38166E-03    rms(broyden)= 0.38166E-03
  rms(prec ) = 0.51191E-03
  weight for this iteration     100.00

 eigenvalues of (default mixing * dielectric matrix)
  average eigenvalue GAMMA=   1.5311
  1.0260  2.0362

[...]

--------------------------------------- Iteration     25(   4)  ---------------------------------------

 BZINTS: Fermi energy:  3.846292;144.000000 electrons
         Band energy:-793.178839;  BLOECHL correction:  0.000000

 eigenvalue-minimisations  :  4176
 total energy-change (2. order) : 0.5933962E-06  (-0.1828618E-06)
 number of electron     144.0000013 magnetization
 augmentation part      -17.1114243 magnetization

 Free energy of the ion-electron system (eV)
  alpha Z        PSCENC =       481.14192798
  Ewald energy   TEWEN  =     -6566.78387361
  -Hartree energ DENC   =      -861.14981488
  -exchange      EXHF   =         0.00000000
  -V(xc)+E(xc)   XCENC  =        59.75275361
  PAW double counting   =      3907.94167126    -3637.30509861
  entropy T*S    EENTRO =         0.00000000
  eigenvalues    EBANDS =      -793.17883873
  atomic energy  EATOM  =      7287.06411261
  Solvation  Ediel_sol  =         0.00000000
  free energy    TOTEN  =      -122.51716037 eV

  energy without entropy =     -122.51716037  energy(sigma->0) =     -122.51716037

 average (electrostatic) potential at core
  the test charge radii are     1.2192  0.9892
  (the norm of the test charge is              1.0000)
       1 -34.8180       2 -34.8180       3 -34.8180       4 -34.8180       5 -34.9204
       6 -34.9204       7 -34.9204       8 -34.9204       9 -86.3963      10 -86.3963
      11 -86.3963      12 -86.3963      13 -86.3963      14 -86.3963      15 -86.3963
      16 -86.3963      17 -86.4633      18 -86.4633      19 -86.4634      20 -86.4634
      21 -86.3501      22 -86.3501      23 -86.3501      24 -86.3501

 E-fermi :   3.8463     XC(G=0):  -9.3633     alpha+bet :-11.0555

[...]

 k-point    36 :       0.4000    0.5000    0.5000
  band No.  band energies     occupation
      1     -23.5435      2.00000
      2     -23.5435      2.00000
      3     -23.5434      2.00000
      4     -23.5434      2.00000
      5     -23.4723      2.00000
      6     -23.4722      2.00000
      7     -23.4686      2.00000
      8     -23.4686      2.00000
      9      -9.2362      2.00000
     10      -9.2362      2.00000
     11      -9.2098      2.00000
     12      -9.2098      2.00000
     13      -9.1093      2.00000
     14      -9.1093      2.00000
     15      -9.0871      2.00000
     16      -9.0871      2.00000
     17      -8.9449      2.00000
     18      -8.9449      2.00000
     19      -8.8844      2.00000
     20      -8.8844      2.00000
     21      -8.8068      2.00000
     22      -8.8068      2.00000
     23      -8.8002      2.00000
     24      -8.8002      2.00000
     25      -8.7476      2.00000
     26      -8.7476      2.00000
     27      -8.7327      2.00000
     28      -8.7327      2.00000
     29      -8.6984      2.00000
     30      -8.6984      2.00000
     31      -8.6974      2.00000
     32      -8.6974      2.00000
     33      -6.7703      2.00000
     34      -6.7703      2.00000
     35      -6.7701      2.00000
     36      -6.7701      2.00000
     37      -2.3590      2.00000
     38      -2.3590      2.00000
     39      -2.2470      2.00000
     40      -2.2470      2.00000
     41      -1.9162      2.00000
     42      -1.9162      2.00000
     43      -1.8734      2.00000
     44      -1.8734      2.00000
     45      -1.7325      2.00000
     46      -1.7325      2.00000
     47      -1.6557      2.00000
     48      -1.6557      2.00000
     49       1.3367      2.00000
     50       1.3367      2.00000
     51       1.4224      2.00000
     52       1.4224      2.00000
     53       1.8592      2.00000
     54       1.8592      2.00000
     55       2.0014      2.00000
     56       2.0014      2.00000
     57       2.2237      2.00000
     58       2.2237      2.00000
     59       2.2908      2.00000
     60       2.2908      2.00000
[...]
     74       4.6019      0.00000
     75       4.7834      0.00000
     76       4.7834      0.00000
     77       5.0075      0.00000
     78       5.0075      0.00000
     79       5.2901      0.00000
     80       5.2901      0.00000
     81       5.7689      0.00000
     82       5.7689      0.00000
     83       5.9194      0.00000
     84       5.9194      0.00000
     85       6.2818      0.00000
     86       6.2818      0.00000
     87       6.3691      0.00000
     88       6.3691      0.00000

 soft charge-density along one line, spin component           1
         0         1         2         3         4         5         6         7         8         9
 total charge-density along one line

------------------------ aborting loop because EDIFF is reached ----------------------------------------

  FORCE on cell =-STRESS in cart. coord.  units (eV):
  Direction    XX          YY          ZZ          XY          YZ          ZX
  Alpha Z   481.14193   481.14193   481.14193
  Ewald   -2203.95791 -2186.28023 -2176.56436    -0.00000    -0.00000    -0.00014
  Hartree   278.35081   290.69431   292.10676     0.00000    -0.00000     0.00001
  E(xc)    -464.71977  -464.62458  -464.58448    -0.00000     0.00000    -0.00000
  Local     173.90816   149.69559   139.30175     0.00000     0.00000     0.00009
  n-local   351.92434   350.01936   350.31500    -0.11038    -0.02280    -0.15768
  augment  -172.12208  -171.18351  -171.38487    -0.00000     0.00000    -0.00000
  Kinetic  1555.45224  1550.58622  1549.65249     0.68973    -0.84600     0.04420
  Fock        0.00000     0.00000     0.00000     0.00000     0.00000     0.00000
  Total      -0.02227     0.04909    -0.01578     0.00000     0.00000     0.00000
  in kB      -0.05467     0.12050    -0.03873     0.00000     0.00000     0.00000

 VOLUME and BASIS-vectors are now :
  energy-cutoff  :      500.00
  volume of cell :      652.74
      direct lattice vectors                 reciprocal lattice vectors
     8.759011692 -0.000000000  0.000000000     0.114168132  0.000000000  0.000000000
    -0.000000000  6.604187150  0.000000000     0.000000000  0.151419089  0.000000000
     0.000000000  0.000000000 11.284017339     0.000000000  0.000000000  0.088620920

  length of vectors
     8.759011692  6.604187150 11.284017339     0.114168132  0.151419089  0.088620920

 FORCES acting on ions
    electron-ion (+dipol)            ewald-force                    non-local-force                 convergence-correction
   0.333E+01 0.762E-04 0.229E+01   -.365E+01 0.147E-04 -.254E+01   0.320E+00 -.383E-18 0.238E+00   0.157E-03 -.474E-09 0.162E-03
   -.333E+01 0.792E-05 -.229E+01   0.365E+01 -.209E-04 0.254E+01   -.320E+00 0.270E-18 -.238E+00   -.157E-03 -.417E-09 -.162E-03
   -.333E+01 0.391E-05 0.229E+01   0.365E+01 -.209E-04 -.254E+01   -.320E+00 -.915E-18 0.238E+00   -.157E-03 -.118E-08 0.162E-03
   0.333E+01 0.722E-04 -.229E+01   -.365E+01 0.147E-04 0.254E+01   0.320E+00 0.114E-17 -.238E+00   0.157E-03 -.123E-08 -.162E-03
   -.225E+02 0.679E-05 -.641E+01   0.217E+02 -.185E-04 0.643E+01   0.789E+00 -.773E-18 -.244E-01   -.323E-03 0.512E-09 0.132E-03
   0.225E+02 0.750E-04 0.641E+01   -.217E+02 0.178E-04 -.643E+01   -.789E+00 0.214E-17 0.244E-01   0.323E-03 0.265E-09 -.132E-03
   0.225E+02 0.730E-04 -.641E+01   -.217E+02 0.178E-04 0.643E+01   -.789E+00 -.433E-18 -.244E-01   0.323E-03 0.117E-09 0.132E-03
   -.225E+02 0.477E-05 0.641E+01   0.217E+02 -.185E-04 -.643E+01   0.789E+00 -.808E-18 0.244E-01   -.323E-03 0.363E-09 -.132E-03
   0.109E+02 0.316E+02 -.171E+02   -.110E+02 -.321E+02 0.174E+02   0.664E-01 0.546E+00 -.353E+00   -.838E-04 -.158E-03 0.118E-03
   -.109E+02 -.316E+02 0.171E+02   0.110E+02 0.321E+02 -.174E+02   -.664E-01 -.546E+00 0.353E+00   0.838E-04 0.158E-03 -.118E-03
   -.109E+02 -.316E+02 -.171E+02   0.110E+02 0.321E+02 0.174E+02   -.664E-01 -.546E+00 -.353E+00   0.838E-04 0.158E-03 0.118E-03
   0.109E+02 0.316E+02 0.171E+02   -.110E+02 -.321E+02 -.174E+02   0.664E-01 0.546E+00 0.353E+00   -.838E-04 -.158E-03 -.118E-03
   -.109E+02 0.316E+02 0.171E+02   0.110E+02 -.321E+02 -.174E+02   -.664E-01 0.546E+00 0.353E+00   0.838E-04 -.158E-03 -.118E-03
   0.109E+02 -.316E+02 -.171E+02   -.110E+02 0.321E+02 0.174E+02   0.664E-01 -.546E+00 -.353E+00   -.838E-04 0.158E-03 0.118E-03
   0.109E+02 -.316E+02 0.171E+02   -.110E+02 0.321E+02 -.174E+02   0.664E-01 -.546E+00 0.353E+00   -.838E-04 0.158E-03 -.118E-03
   -.109E+02 0.316E+02 -.171E+02   0.110E+02 -.321E+02 0.174E+02   -.664E-01 0.546E+00 -.353E+00   0.838E-04 -.158E-03 0.118E-03
   0.442E+02 -.123E-04 0.116E+01   -.451E+02 -.824E-05 -.202E+01   0.946E+00 -.406E-17 0.854E+00   -.164E-03 0.275E-09 0.135E-03
   -.442E+02 -.496E-06 -.116E+01   0.451E+02 0.853E-05 0.202E+01   -.946E+00 0.344E-17 -.854E+00   0.164E-03 0.468E-09 -.135E-03
   -.442E+02 0.721E-05 0.116E+01   0.451E+02 0.853E-05 -.202E+01   -.946E+00 -.859E-17 0.854E+00   0.164E-03 0.320E-09 0.135E-03
   0.442E+02 -.458E-05 -.116E+01   -.451E+02 -.824E-05 0.202E+01   0.946E+00 -.674E-17 -.854E+00   -.164E-03 0.126E-09 -.135E-03
   0.776E+01 -.443E-05 0.358E+02   -.744E+01 0.910E-05 -.366E+02   -.325E+00 -.423E-18 0.763E+00   -.170E-03 -.326E-10 -.282E-03
   -.776E+01 -.155E-04 -.358E+02   0.744E+01 -.953E-05 0.366E+02   0.325E+00 -.644E-18 -.763E+00   0.170E-03 -.271E-09 0.282E-03
   -.776E+01 -.134E-05 0.358E+02   0.744E+01 -.953E-05 -.366E+02   0.325E+00 -.460E-17 0.763E+00   0.170E-03 -.226E-09 -.282E-03
   0.776E+01 0.974E-05 -.358E+02   -.744E+01 0.910E-05 0.366E+02   -.325E+00 -.364E-17 -.763E+00   -.170E-03 0.118E-10 0.282E-03
   -.263E-03 0.379E-03 0.659E-04   0.142E-13 0.230E-13 -.426E-13   0.000E+00 -.253E-16 -.222E-15   -.474E-08 -.109E-09 0.274E-08

 POSITION                                       TOTAL-FORCE (eV/Angst)
      0.14697      1.65105      7.79102         0.002902     -0.000000     -0.005235
      8.61205      4.95314      3.49300        -0.002902      0.000000      0.005235
      4.23254      4.95314      2.14901        -0.002902     -0.000000     -0.005235
      4.52647      1.65105      9.13500         0.002902      0.000000      0.005235
      1.41669      4.95314     10.22626        -0.000630      0.000000     -0.003493
      7.34232      1.65105      1.05776         0.000630     -0.000000      0.003493
      2.96282      1.65105      4.58425         0.000630     -0.000000     -0.003493
      5.79619      4.95314      6.69976        -0.000630     -0.000000      0.003493
      1.67042      0.46115      1.65894         0.001486      0.002647     -0.005276
      7.08859      6.14304      9.62508        -0.001486     -0.002647      0.005276
      2.70909      6.14304      7.30095        -0.001486     -0.002647     -0.005276
      6.04992      0.46115      3.98307         0.001486      0.002647      0.005276
      7.08859      3.76324      9.62508        -0.001486      0.002647      0.005276
      1.67042      2.84095      1.65894         0.001486     -0.002647     -0.005276
      6.04992      2.84095      3.98307         0.001486     -0.002647      0.005276
      2.70909      3.76324      7.30095        -0.001486      0.002647     -0.005276
      0.72148      4.95314      6.69348         0.002134      0.000000     -0.003571
      8.03753      1.65105      4.59054        -0.002134     -0.000000      0.003571
      3.65803      1.65105      1.05147        -0.002134     -0.000000     -0.003571
      5.10098      4.95314     10.23255         0.002134      0.000000      0.003571
      1.71099      1.65105     10.88198        -0.004335      0.000000      0.002467
      7.04802      4.95314      0.40203         0.004335      0.000000     -0.002467
      2.66851      4.95314      5.23997         0.004335     -0.000000      0.002467
      6.09050      1.65105      6.04404        -0.004335      0.000000     -0.002467
    total drift:                               -0.000263      0.000379      0.000066

  FREE ENERGIE OF THE ION-ELECTRON SYSTEM (eV)
  free  energy   TOTEN  =      -122.51716037 eV

  energy  without entropy=     -122.51716037  energy(sigma->0) =     -122.51716037

 d Force = 0.6912208E-04[ 0.333E-04, 0.105E-03]  d Energy = 0.7598792E-04-0.687E-05
 d Force = 0.1009714E+00[ 0.101E+00, 0.101E+00]  d Ewald  = 0.3115756E+00-0.211E+00

 Conjugate gradient step on ions:
 trial-energy change:   -0.000076  1 .order   -0.000074   -0.000117   -0.000030
  (g-gl).g = 0.400E-04      g.g   = 0.779E-04  gl.gl    = 0.140E-03
 g(Force)  = 0.655E-04   g(Stress)= 0.124E-04 ortho     = 0.717E-05
 gamma     =   0.28468
 trial     =   1.46170
 opt step  =   1.97193  (harmonic =   1.97193) maximal distance =0.00140727
 next E    =  -122.517163   (d E  =  -0.00008)

 reached required accuracy - stopping structural energy minimisation
 writing wavefunctions
 BZINTS: Fermi energy:  3.846292;144.000000 electrons
         Band energy:-793.178839;  BLOECHL correction:  0.000000