 vasp.5.4.4.18Apr17-6-g9f103f2a35 (build Nov 21 2017 15:30:27) complex

 executed on             LinuxIFC date 2020.11.09  11:55:50

 INCAR:
 POTCAR:   PAW_PBE Ba_sv 06Sep2000
 POTCAR:   PAW_PBE Si 05Jan2001

 POTCAR:   PAW_PBE Ba_sv 06Sep2000
   VRHFIN =Ba: 5s5p6s

   TITEL  = PAW_PBE Ba_sv 06Sep2000
   POMASS =  137.327; ZVAL   =   10.000    mass and valenz
   ENMAX  =  187.210; ENMIN  =  140.408 eV
   QCUT   =   -3.709; QGAM   =    7.419    optimization parameters

   Description
     l     E      TYP  RCUT    TYP  RCUT
     0   .000     23  2.800
     0   .000     23  2.800
     1   .000     23  2.700
     1  2.000     23  2.700
     2   .000     23  2.700
     2   .000     23  2.700

 POTCAR:   PAW_PBE Si 05Jan2001
   VRHFIN =Si: s2p2

   TITEL  = PAW_PBE Si 05Jan2001
   POMASS =   28.085; ZVAL   =    4.000    mass and valenz
   ENMAX  =  245.345; ENMIN  =  184.009 eV
   QCUT   =   -4.246; QGAM   =    8.493    optimization parameters

   Description
     l     E      TYP  RCUT    TYP  RCUT
     0   .000     23  1.900
     0   .000     23  1.900
     1   .000     23  1.900
     1   .000     23  1.900
     2   .000      7  1.900

 Optimization of the real space projectors (new method)

 maximal supplied QI-value         = 13.42
 optimisation between [QCUT,QGAM] = [ 11.40, 22.81] = [ 36.42,145.68] Ry
 Optimized for a Real-space Cutoff    1.56 Angstroem

   l    n(q)    QCUT    max X(q) W(low)/X(q) W(high)/X(q)  e(spline)
   0     11    11.404     7.198    0.14E-04    0.26E-04    0.99E-07
   0     11    11.404    15.603    0.29E-04    0.72E-04    0.44E-06
   1     10    11.404     3.746    0.20E-04    0.24E-04    0.43E-07
   1     10    11.404     4.362    0.22E-03    0.97E-04    0.22E-06
   2     10    11.404     5.782    0.83E-04    0.62E-05    0.27E-06
   2     10    11.404    65.505    0.42E-03    0.31E-04    0.12E-05
 Optimization of the real space projectors (new method)

 maximal supplied QI-value         = 19.84
 optimisation between [QCUT,QGAM] = [ 11.31, 22.82] = [ 35.82,145.81] Ry
 Optimized for a Real-space Cutoff    1.16 Angstroem

   l    n(q)    QCUT    max X(q) W(low)/X(q) W(high)/X(q)  e(spline)
   0      8    11.310     8.708    0.14E-04    0.11E-04    0.43E-08
   0      8    11.310   106.241    0.27E-03    0.30E-03    0.38E-07
   1      7    11.310     5.901    0.82E-05    0.48E-04    0.19E-07
   1      7    11.310    73.241    0.27E-03    0.27E-03    0.74E-07

 PAW_PBE Ba_sv 06Sep2000                :
 PAW_PBE Si 05Jan2001                   :

 POSCAR: ba8 si16
  positions in direct lattice
  velocities in cartesian coordinates
 exchange correlation table for  LEXCH =       43
   RHO(1)=    0.500       N(1)  =     2000
   RHO(2)=  100.500       N(2)  =     4000

 ion  position               nearest neighbor table
   1  0.011  0.250  0.699-  31 3.26  18 3.34  14 3.34  25 3.46  25 3.46   7 4.41   7 4.41   8 4.44
                             3 4.52
   2  0.149  0.750  0.192-  27 3.38  15 3.40  17 3.40  13 3.42  16 3.42  35 3.49  32 3.57  26 3.58
                            26 3.58   7 3.92   8 4.19   8 4.19
   3  0.163  0.250  0.809-  26 3.26  18 3.39  14 3.39  22 3.43  20 3.43  33 3.48  31 3.52  27 3.56
                            27 3.56   9 4.32   9 4.32  11 4.32   7 4.43   7 4.43   1 4.52
   4  0.325  0.250  0.692-  29 3.38  22 3.40  20 3.40  24 3.42  21 3.42  33 3.49  34 3.57  28 3.58
                            28 3.58  12 3.92  10 4.19  10 4.19
   5  0.311  0.750  0.309-  28 3.26  19 3.39  23 3.39  15 3.43  17 3.43  35 3.48  36 3.52  29 3.56
                            29 3.56  11 4.32  11 4.32   9 4.32  12 4.43  12 4.43   6 4.52
   6  0.463  0.750  0.199-  36 3.26  19 3.34  23 3.34  30 3.46  30 3.46  12 4.41  12 4.41  10 4.44
                             5 4.52
   7  0.068  0.750  0.912-  31 3.38  31 3.38  27 3.39  14 3.41  18 3.41  13 3.42  16 3.42  25 3.58
                             2 3.92   1 4.41   1 4.41   3 4.43   3 4.43
   8  0.109  0.250  0.396-  17 3.34  15 3.34  16 3.42  13 3.42  32 3.47  32 3.47  18 3.51  14 3.51
                            33 3.52  26 3.59   2 4.19   2 4.19   1 4.44
   9  0.210  0.750  0.594-  33 3.38  33 3.38  20 3.44  22 3.44  14 3.44  18 3.44  15 3.46  17 3.46
                            27 3.63  28 3.89  32 3.94   3 4.32   3 4.32   5 4.32
  10  0.365  0.750  0.896-  20 3.34  22 3.34  21 3.42  24 3.42  34 3.47  34 3.47  19 3.51  23 3.51
                            35 3.52  28 3.59   4 4.19   4 4.19   6 4.44
  11  0.264  0.250  0.094-  35 3.38  35 3.38  17 3.44  15 3.44  23 3.44  19 3.44  22 3.46  20 3.46
                            29 3.63  26 3.89  34 3.94   5 4.32   5 4.32   3 4.32
  12  0.406  0.250  0.412-  36 3.38  36 3.38  29 3.39  23 3.41  19 3.41  24 3.42  21 3.42  30 3.58
                             4 3.92   6 4.41   6 4.41   5 4.43   5 4.43
  13  0.056  0.069  0.148-  16 2.39  31 2.41  26 2.48   8 3.42   7 3.42   2 3.42
  14  0.098  0.931  0.641-  18 2.39  32 2.43  25 2.44   1 3.34   3 3.39   7 3.41   9 3.44   8 3.51

  15  0.217  0.067  0.352-  29 2.41  17 2.42  33 2.42   8 3.34   2 3.40   5 3.43  11 3.44   9 3.46

[...]

  36  0.418  0.750  0.463-  21 2.41  24 2.41  28 2.45   6 3.26  12 3.38  12 3.38   5 3.52

  LATTYP: Found a simple orthorhombic cell.
 ALAT       =     6.6162644169
 B/A-ratio  =     1.7145772964
 C/A-ratio  =     4.3072897642

  Lattice vectors:

 A1 = (   0.0000000000,   6.6162644169,   0.0000000000)
 A2 = (   0.0000000000,   0.0000000000, -11.3440967564)
 A3 = ( -28.4981679999,   0.0000000000,   0.0000000000)

Analysis of symmetry for initial positions (statically):
 Subroutine PRICEL returns:
 Original cell was already a primitive cell.

 Routine SETGRP: Setting up the symmetry group for a
 simple orthorhombic supercell.

 Subroutine GETGRP returns: Found  4 space group operations
 (whereof  1 operations were pure point group operations)
 out of a pool of  8 trial point group operations.

The static configuration has the point symmetry C_1 .
 The point group associated with its full space group is C_2v.

Analysis of symmetry for dynamics (positions and initial velocities):
 Subroutine PRICEL returns:
 Original cell was already a primitive cell.

 Routine SETGRP: Setting up the symmetry group for a
 simple orthorhombic supercell.

 Subroutine GETGRP returns: Found  4 space group operations
 (whereof  1 operations were pure point group operations)
 out of a pool of  8 trial point group operations.

The dynamic configuration has the point symmetry C_1 .
 The point group associated with its full space group is C_2v.

 Subroutine INISYM returns: Found  4 space group operations
 (whereof  1 operations are pure point group operations),
 and found     1 'primitive' translations

 KPOINTS: k-points along high symmetry lines
  interpolating k-points between supplied coordinates
  k-points in reciprocal lattice
Space group operators:
 irot       det(A)        alpha          n_x          n_y          n_z        tau_x        tau_y        tau_z
    1     1.000000     0.000000     1.000000     0.000000     0.000000     0.000000     0.000000     0.000000
    2    -1.000000   180.000000     1.000000     0.000000     0.000000    -0.526054     0.500000    -0.500000
    3     1.000000   180.000000     0.000000     0.000000     1.000000    -0.526054     0.000000    -0.500000
    4    -1.000000   180.000000     0.000000     1.000000     0.000000     0.000000     0.500000     0.000000

 SYSTEM =  unknown system
 POSCAR =  ba8 si16

 Startparameter for this run:
   NWRITE =      2    write-flag & timer
   PREC   = normal    normal or accurate (medium, high low for compatibility)
   ISTART =      0    job   : 0-new  1-cont  2-samecut
   ICHARG =     11    charge: 1-file 2-atom 10-const
   ISPIN  =      1    spin polarized calculation?
   LNONCOLLINEAR =      F non collinear calculations
   LSORBIT =      F    spin-orbit coupling
   INIWAV =      1    electr: 0-lowe 1-rand  2-diag
   LASPH  =      T    aspherical Exc in radial PAW
   METAGGA=      F    non-selfconsistent MetaGGA calc.

 Electronic Relaxation 1
   ENCUT  =  500.0 eV  36.75 Ry    6.06 a.u.  51.96 12.06 20.68*2*pi/ulx,y,z
   ENINI  =  500.0     initial cutoff
   ENAUG  =  351.2 eV  augmentation charge cutoff
   NELM   =    100;   NELMIN=  2; NELMDL= -5     # of ELM steps
   EDIFF  = 0.1E-05   stopping-criterion for ELM
   LREAL  =      T    real-space projection
   NLSPLINE    = F    spline interpolate recip. space projectors
   LCOMPAT=      F    compatible to vasp.4.4
   GGA_COMPAT  = T    GGA compatible to vasp.4.4-vasp.4.6
   LMAXPAW     = -100 max onsite density
   LMAXMIX     =    2 max onsite mixed and CHGCAR
   VOSKOWN=      0    Vosko Wilk Nusair interpolation
   ROPT   =   -0.00050  -0.00050
 Ionic relaxation
   EDIFFG = -.1E-01   stopping-criterion for IOM
   NSW    =      0    number of steps for IOM
   NBLOCK =      1;   KBLOCK =      1    inner block; outer block
   IBRION =     -1    ionic relax: 0-MD 1-quasi-New 2-CG
   NFREE  =      0    steps in history (QN), initial steepest desc. (CG)
   ISIF   =      2    stress and relaxation
   IWAVPR =     10    prediction:  0-non 1-charg 2-wave 3-comb
   ISYM   =      2    0-nonsym 1-usesym 2-fastsym
   LCORR  =      T    Harris-Foulkes like correction to forces

   POTIM  = 0.3000    time-step for ionic-motion
   TEIN   =    0.0    initial temperature
   TEBEG  =    0.0;   TEEND  =   0.0 temperature during run
   SMASS  =  -3.00    Nose mass-parameter (am)
   estimated Nose-frequenzy (Omega)   =  0.10E-29 period in steps =****** mass=  -0.186E-25a.u.
   SCALEE = 1.0000    scale energy and forces
   NPACO  =    256;   APACO  = 16.0  distance and # of slots for P.C.
   PSTRESS=    0.0 pullay stress

  Mass of Ions in am
   POMASS = 137.33 28.09
  Ionic Valenz
   ZVAL   =  10.00  4.00
  Atomic Wigner-Seitz radii
  virtual crystal weights
   VCA    =   1.00  1.00
   NELECT =     216.0000    total number of electrons
   NUPDOWN=      -1.0000    fix difference up-down

 DOS related values:
   EMIN   =  10.00;   EMAX   =-10.00  energy-range for DOS
   EFERMI =   0.00
   ISMEAR =     0;   SIGMA  =   0.01  broadening in eV -4-tet -1-fermi 0-gaus

 Electronic relaxation 2 (details)
   IALGO  =     38    algorithm
   LDIAG  =      T    sub-space diagonalisation (order eigenvalues)
   LSUBROT=      F    optimize rotation matrix (better conditioning)
   TURBO    =      0    0=normal 1=particle mesh
   IRESTART =      0    0=no restart 2=restart with 2 vectors
   NREBOOT  =      0    no. of reboots
   NMIN     =      0    reboot dimension
   EREF     =   0.00    reference energy to select bands
   IMIX   =      4    mixing-type and parameters
     AMIX     =   0.40;   BMIX     =  1.00
     AMIX_MAG =   1.60;   BMIX_MAG =  1.00
     AMIN     =   0.10
     WC   =   100.;   INIMIX=   1;  MIXPRE=   1;  MAXMIX= -45

 Intra band minimization:
   WEIMIN = 0.0000     energy-eigenvalue tresh-hold
   EBREAK =  0.18E-08  absolut break condition
   DEPER  =   0.30     relativ break condition

   TIME   =   0.40     timestep for ELM

  volume/ion in A,a.u.               =      59.42       400.95
  Fermi-wavevector in a.u.,A,eV,Ry     =   0.762359  1.440650  7.907586  0.581191
[...]
  -exchange      EXHF   =         0.00000000
  -V(xc)+E(xc)   XCENC  =        72.38992308
  PAW double counting   =      5802.61893944    -5360.91758662
  entropy T*S    EENTRO =        -0.00000000
  eigenvalues    EBANDS =     -2041.38007262
  atomic energy  EATOM  =     10903.72718121
  Solvation  Ediel_sol  =         0.00000000
  free energy    TOTEN  =      -139.88765942 eV

  energy without entropy =     -139.88765942  energy(sigma->0) =     -139.88765942

 average (electrostatic) potential at core
  the test charge radii are     1.2192  0.9892
  (the norm of the test charge is              1.0000)
       1 -40.7822       2 -39.5911       3 -39.5394       4 -39.5911       5 -39.5392
       6 -40.7817       7 -39.7585       8 -39.6926       9 -39.7487      10 -39.6923
      11 -39.7485      12 -39.7582      13 -88.4705      14 -88.7408      15 -88.7781
      16 -88.4705      17 -88.7781      18 -88.7408      19 -88.7405      20 -88.7783
      21 -88.4699      22 -88.7783      23 -88.7405      24 -88.4699      25 -88.8378
      26 -88.4403      27 -88.8801      28 -88.4402      29 -88.8800      30 -88.8375
      31 -88.4511      32 -88.8233      33 -88.7622      34 -88.8230      35 -88.7623
      36 -88.4506

 E-fermi :  -0.1863     XC(G=0):  -5.0330     alpha+bet : -5.0911

 k-point     1 :       0.0000    0.0000    0.0000
  band No.  band energies     occupation
      1     -28.6394      2.00000
      2     -28.6390      2.00000
      3     -27.6558      2.00000
      4     -27.6554      2.00000
      5     -27.6339      2.00000
      6     -27.6321      2.00000
      7     -27.5872      2.00000
      8     -27.5869      2.00000
      9     -27.4886      2.00000
     10     -27.4884      2.00000
     11     -27.4555      2.00000
     12     -27.4540      2.00000
     13     -14.0164      2.00000
     14     -14.0159      2.00000
     15     -13.9430      2.00000
     16     -13.9425      2.00000
     17     -13.8534      2.00000
     18     -13.8529      2.00000
     19     -13.2851      2.00000
     20     -13.2490      2.00000
     21     -13.1615      2.00000
     22     -13.1361      2.00000
     23     -13.1256      2.00000
     24     -13.0701      2.00000
     25     -13.0650      2.00000
     26     -13.0510      2.00000
     27     -13.0274      2.00000
     28     -13.0270      2.00000
     29     -13.0266      2.00000
     30     -13.0007      2.00000
     31     -12.9984      2.00000
     32     -12.9784      2.00000
     33     -12.9765      2.00000
     34     -12.9730      2.00000
     35     -12.9715      2.00000
     36     -12.9284      2.00000
     37     -12.8651      2.00000
     38     -12.8344      2.00000
     39     -12.7967      2.00000
     40     -12.7901      2.00000
     41     -12.7744      2.00000
     42     -12.7730      2.00000
     43     -12.7650      2.00000
     44     -12.7500      2.00000
     45     -12.7437      2.00000
     46     -12.7331      2.00000
     47     -12.7170      2.00000
     48     -12.7134      2.00000
     49     -10.8341      2.00000
     50     -10.6323      2.00000
     51     -10.6285      2.00000
     52     -10.5952      2.00000
     53     -10.2182      2.00000
     54     -10.2118      2.00000
     55      -6.2303      2.00000
     56      -6.0712      2.00000
     57      -6.0188      2.00000
     58      -5.8949      2.00000
     59      -5.8943      2.00000
     60      -5.8585      2.00000
[...]
    122       1.8089      0.00000
    123       1.8404      0.00000
    124       1.9091      0.00000
    125       2.0662      0.00000
    126       2.1426      0.00000
    127       2.2300      0.00000
    128       2.2349      0.00000
    129       2.3502      0.00000
    130       2.3873      0.00000
    131       2.5447      0.00000
    132       2.5604      0.00000
    133       2.7366      0.00000
    134       2.7897      0.00000
    135       2.8185      0.00000
    136       2.8886      0.00000

[...]

 k-point    80 :       0.0000    0.0000    0.0000
  band No.  band energies     occupation
      1     -28.6394      2.00000
      2     -28.6390      2.00000
      3     -27.6558      2.00000
      4     -27.6554      2.00000
      5     -27.6339      2.00000
      6     -27.6321      2.00000
      7     -27.5872      2.00000
      8     -27.5869      2.00000
      9     -27.4886      2.00000
     10     -27.4884      2.00000
     11     -27.4555      2.00000
     12     -27.4540      2.00000
     13     -14.0164      2.00000
     14     -14.0159      2.00000
     15     -13.9430      2.00000
     16     -13.9425      2.00000
     17     -13.8534      2.00000
     18     -13.8529      2.00000
     19     -13.2851      2.00000
     20     -13.2490      2.00000
     21     -13.1615      2.00000
     22     -13.1361      2.00000
     23     -13.1256      2.00000
     24     -13.0701      2.00000
     25     -13.0650      2.00000
     26     -13.0510      2.00000
     27     -13.0274      2.00000
     28     -13.0270      2.00000
     29     -13.0266      2.00000
     30     -13.0007      2.00000
     31     -12.9984      2.00000
     32     -12.9784      2.00000
     33     -12.9765      2.00000
     34     -12.9730      2.00000
     35     -12.9715      2.00000
     36     -12.9284      2.00000
     37     -12.8651      2.00000
     38     -12.8344      2.00000
     39     -12.7967      2.00000
     40     -12.7901      2.00000
     41     -12.7744      2.00000
     42     -12.7730      2.00000
     43     -12.7650      2.00000
     44     -12.7500      2.00000
     45     -12.7437      2.00000
     46     -12.7331      2.00000
     47     -12.7170      2.00000
     48     -12.7134      2.00000
     49     -10.8341      2.00000
     50     -10.6323      2.00000
     51     -10.6285      2.00000
     52     -10.5952      2.00000
     53     -10.2182      2.00000
     54     -10.2118      2.00000
     55      -6.2303      2.00000
     56      -6.0712      2.00000
     57      -6.0188      2.00000
     58      -5.8949      2.00000
     59      -5.8943      2.00000
     60      -5.8585      2.00000
[...]
    122       1.8089      0.00000
    123       1.8404      0.00000
    124       1.9091      0.00000
    125       2.0662      0.00000
    126       2.1426      0.00000
    127       2.2300      0.00000
    128       2.2349      0.00000
    129       2.3502      0.00000
    130       2.3872      0.00000
    131       2.5445      0.00000
    132       2.5615      0.00000
    133       2.7427      0.00000
    134       2.7765      0.00000
    135       2.8288      0.00000
    136       2.8844      0.00000

 soft charge-density along one line, spin component           1
         0         1         2         3         4         5         6         7         8         9
 total charge-density along one line

------------------------ aborting loop because EDIFF is reached ----------------------------------------

  FORCE on cell =-STRESS in cart. coord.  units (eV):
  Direction    XX          YY          ZZ          XY          YZ          ZX
  Alpha Z   338.54128   338.54128   338.54128
  Ewald  -40697.18148 34696.36341 34240.76545    -0.00003     0.00001    -0.00012
  Hartree-35961.89310 37211.20030 36852.84827     0.00000     0.00000     0.00001
  E(xc)    -697.59713  -699.13809  -699.18015    -0.00000     0.00000    -0.00001
  Local   74441.13390-74143.97096-73319.62911     0.00002    -0.00001     0.00007
  n-local   506.25465   508.81842   510.81285    -0.00001    -0.00000     0.00276
  augment  -251.39800  -251.97656  -251.95736    -0.00000     0.00000     0.00034
  Kinetic  2321.73537  2339.26961  2327.19764    -0.00001     0.00000    -0.00018
  Fock        0.00000     0.00000     0.00000     0.00000     0.00000     0.00000
  Total      -0.40452    -0.89259    -0.60114     0.00000     0.00000     0.00000
  in kB      -0.30300    -0.66859    -0.45029     0.00000     0.00000     0.00000

 VOLUME and BASIS-vectors are now :
  energy-cutoff  :      500.00
  volume of cell :     2138.95
      direct lattice vectors                 reciprocal lattice vectors
    28.498168000  0.000000000  0.000000000     0.035089975  0.000000000  0.000000000
     0.000000000  6.616264417  0.000000000     0.000000000  0.151142690  0.000000000
     0.000000000  0.000000000 11.344096756     0.000000000  0.000000000  0.088151575

  length of vectors
    28.498168000  6.616264417 11.344096756     0.035089975  0.151142690  0.088151575

 FORCES acting on ions
    electron-ion (+dipol)            ewald-force                    non-local-force                 convergence-correction
   0.115E+04 -.958E-04 0.350E+02   -.114E+04 0.108E-04 -.339E+02   -.383E+01 -.179E-21 -.119E+01   -.107E+00 -.866E-05 0.305E-01
   0.518E+03 -.161E-03 -.252E+02   -.518E+03 -.195E-04 0.248E+02   -.300E-01 -.388E-21 0.342E+00   -.122E+00 0.407E-04 -.186E-01
   0.403E+03 -.746E-04 0.890E+00   -.403E+03 0.149E-04 -.393E+00   0.447E+00 0.263E-21 -.554E+00   -.108E+00 -.125E-04 0.692E-01
   -.518E+03 -.774E-04 -.252E+02   0.518E+03 0.141E-04 0.248E+02   0.300E-01 -.242E-21 0.342E+00   0.125E+00 -.118E-04 -.178E-01
   -.403E+03 -.156E-03 0.891E+00   0.403E+03 -.203E-04 -.393E+00   -.447E+00 0.301E-21 -.554E+00   0.111E+00 0.411E-04 0.687E-01
   -.115E+04 -.129E-03 0.350E+02   0.114E+04 -.139E-04 -.339E+02   0.383E+01 -.253E-21 -.119E+01   0.110E+00 0.377E-04 0.307E-01
   0.961E+03 -.151E-03 -.461E+02   -.960E+03 -.183E-04 0.458E+02   -.875E+00 -.128E-21 0.974E-01   -.182E+00 0.388E-04 0.208E+00
   0.784E+03 -.107E-03 0.116E+02   -.783E+03 0.144E-04 -.119E+02   -.114E+01 0.632E-21 0.369E+00   -.149E+00 -.118E-04 -.673E-01
   0.136E+03 -.152E-03 0.158E+02   -.137E+03 -.179E-04 -.156E+02   0.610E+00 0.642E-22 -.140E+00   0.411E-01 0.392E-04 -.475E-01
   -.784E+03 -.138E-03 0.116E+02   0.783E+03 -.149E-04 -.119E+02   0.114E+01 -.630E-21 0.369E+00   0.152E+00 0.386E-04 -.676E-01
   -.136E+03 -.793E-04 0.158E+02   0.137E+03 0.171E-04 -.156E+02   -.610E+00 0.438E-22 -.140E+00   -.378E-01 -.141E-04 -.467E-01
   -.961E+03 -.789E-04 -.461E+02   0.960E+03 0.165E-04 0.458E+02   0.875E+00 0.159E-21 0.974E-01   0.186E+00 -.134E-04 0.209E+00
   0.446E+03 0.357E+02 -.437E+02   -.445E+03 -.373E+02 0.446E+02   -.521E+00 0.155E+01 -.826E+00   -.849E-01 0.305E-01 -.301E-01
   0.293E+03 -.281E+02 0.680E+01   -.292E+03 0.294E+02 -.614E+01   -.482E+00 -.134E+01 -.656E+00   -.429E-01 0.218E-01 -.146E-01
   0.614E+02 0.325E+02 0.178E+02   -.619E+02 -.339E+02 -.184E+02   0.537E+00 0.145E+01 0.651E+00   -.523E-01 -.252E-02 -.175E-01
   0.446E+03 -.357E+02 -.437E+02   -.445E+03 0.373E+02 0.446E+02   -.521E+00 -.155E+01 -.826E+00   -.849E-01 -.306E-01 -.301E-01
   0.614E+02 -.325E+02 0.178E+02   -.619E+02 0.339E+02 -.184E+02   0.537E+00 -.145E+01 0.651E+00   -.523E-01 0.251E-02 -.175E-01
   0.293E+03 0.281E+02 0.680E+01   -.292E+03 -.294E+02 -.614E+01   -.482E+00 0.134E+01 -.656E+00   -.429E-01 -.218E-01 -.146E-01
   -.293E+03 0.281E+02 0.680E+01   0.292E+03 -.294E+02 -.614E+01   0.482E+00 0.134E+01 -.656E+00   0.424E-01 -.218E-01 -.147E-01
   -.614E+02 -.325E+02 0.178E+02   0.619E+02 0.339E+02 -.184E+02   -.537E+00 -.145E+01 0.651E+00   0.526E-01 0.278E-02 -.174E-01
   -.446E+03 -.357E+02 -.437E+02   0.445E+03 0.373E+02 0.446E+02   0.521E+00 -.155E+01 -.826E+00   0.857E-01 -.305E-01 -.300E-01
   -.614E+02 0.325E+02 0.178E+02   0.619E+02 -.339E+02 -.184E+02   -.537E+00 0.145E+01 0.651E+00   0.526E-01 -.278E-02 -.174E-01
   -.293E+03 -.281E+02 0.680E+01   0.292E+03 0.294E+02 -.614E+01   0.482E+00 -.134E+01 -.656E+00   0.424E-01 0.218E-01 -.147E-01
   -.446E+03 0.357E+02 -.437E+02   0.445E+03 -.373E+02 0.446E+02   0.521E+00 0.155E+01 -.826E+00   0.857E-01 0.305E-01 -.300E-01
   0.488E+03 -.743E-05 0.325E+02   -.489E+03 -.717E-05 -.319E+02   0.159E+01 -.952E-22 -.507E+00   -.977E-01 0.536E-05 -.599E-01
   0.213E+03 0.536E-05 -.124E+02   -.211E+03 0.831E-05 0.118E+02   -.208E+01 0.205E-21 0.584E+00   -.922E-01 -.700E-05 -.344E-03
   0.145E+03 -.109E-05 -.426E+01   -.146E+03 -.787E-05 0.485E+01   0.190E+01 0.138E-21 -.647E+00   -.274E-01 0.743E-05 0.483E-01
   -.213E+03 -.503E-05 -.124E+02   0.211E+03 -.794E-05 0.118E+02   0.208E+01 -.136E-21 0.584E+00   0.928E-01 0.702E-05 -.613E-03
   -.145E+03 -.200E-05 -.426E+01   0.146E+03 0.806E-05 0.485E+01   -.190E+01 -.188E-21 -.647E+00   0.269E-01 -.684E-05 0.477E-01
   -.488E+03 -.445E-05 0.325E+02   0.489E+03 0.743E-05 -.319E+02   -.159E+01 -.413E-22 -.507E+00   0.985E-01 -.602E-05 -.601E-01
   0.423E+03 0.385E-05 0.259E+01   -.423E+03 0.822E-05 -.413E+01   0.220E+00 0.127E-21 0.149E+01   -.599E-01 -.652E-05 0.607E-01
   0.367E+03 -.223E-04 0.641E+02   -.366E+03 -.784E-05 -.662E+02   -.706E+00 0.477E-21 0.209E+01   -.903E-01 0.602E-05 -.504E-01
   0.488E+02 -.211E-05 -.351E+02   -.490E+02 0.880E-05 0.367E+02   0.180E+00 -.154E-21 -.156E+01   0.194E-01 -.710E-05 0.756E-02
   -.367E+03 0.229E-04 0.641E+02   0.366E+03 0.758E-05 -.662E+02   0.706E+00 -.313E-21 0.209E+01   0.906E-01 -.620E-05 -.507E-01
   -.488E+02 0.829E-05 -.351E+02   0.490E+02 -.924E-05 0.367E+02   -.180E+00 -.371E-21 -.156E+01   -.195E-01 0.750E-05 0.810E-02
   -.423E+03 0.143E-04 0.259E+01   0.423E+03 -.822E-05 -.413E+01   -.220E+00 -.258E-21 0.149E+01   0.605E-01 0.661E-05 0.609E-01
   -.389E-03 -.154E-02 0.249E+01   0.119E-11 0.250E-13 -.102E-12   0.278E-16 -.609E-21 -.258E+01   0.245E-01 0.155E-03 0.113E+00

 POSITION                                       TOTAL-FORCE (eV/Angst)
      0.30588      1.65407      7.92439         0.037070     -0.000000     -0.046200
      4.24167      4.96220      2.17338        -0.060501      0.000000     -0.027962
      4.65066      1.65407      9.18061         0.038319     -0.000000      0.012234
      9.26494      1.65407      7.84543         0.060501      0.000000     -0.027962
      8.85594      4.96220      3.50856        -0.038319      0.000000      0.012234
     13.20072      4.96220      2.25234        -0.037070      0.000000     -0.046200
      1.94141      4.96220     10.34595         0.010797     -0.000000      0.002008
      3.11776      1.65407      4.48750        -0.024444      0.000000      0.040402
      5.98544      4.96220      6.74142         0.010912     -0.000000     -0.032169
     10.38884      4.96220     10.15954         0.024444     -0.000000      0.040402
      7.52116      1.65407      1.06937        -0.010912      0.000000     -0.032169
     11.56519      1.65407      4.67391        -0.010797      0.000000      0.002008
      1.59230      0.45796      1.67351         0.020374      0.017476     -0.001979
      2.80409      6.15706      7.27368        -0.021747     -0.036753     -0.007415
      6.19202      0.44520      3.99792         0.020907      0.024408      0.015344
      1.59230      2.85017      1.67351         0.020374     -0.017476     -0.001979
      6.19202      2.86293      3.99792         0.020907     -0.024408      0.015344
      2.80409      3.76733      7.27368        -0.021747      0.036753     -0.007415
     10.70251      0.45920      1.60164         0.021747      0.036753     -0.007415
      7.31458      6.17106      9.66996        -0.020907     -0.024408      0.015344
     11.91430      6.15831      7.34556        -0.020374     -0.017476     -0.001979
      7.31458      3.75333      9.66996        -0.020907      0.024408      0.015344
     10.70251      2.84893      1.60164         0.021747     -0.036753     -0.007415
     11.91430      3.76609      7.34556        -0.020374      0.017476     -0.001979
      0.69294      4.96220      6.98703         0.016767      0.000000      0.039861
      3.63201      1.65407      0.93513         0.023436     -0.000000      0.003411
      5.33243      4.96220     10.31334        -0.015227     -0.000000     -0.013158
      9.87459      4.96220      6.60718        -0.023436     -0.000000      0.003411
      8.17417      1.65407      4.64129         0.015227     -0.000000     -0.013158
     12.81366      1.65407      1.31498        -0.016767     -0.000000      0.039861
      1.59251      1.65407     10.92453         0.004959     -0.000000      0.001543
      2.35566      4.96220      5.21032        -0.007545      0.000000     -0.009479
      6.24545      1.65407      6.09230        -0.022758     -0.000000      0.017609
     11.15094      1.65407     10.88237         0.007545      0.000000     -0.009479
      7.26115      4.96220      0.42025         0.022758     -0.000000      0.017609
     11.91409      4.96220      5.25248        -0.004959     -0.000000      0.001543
    total drift:                                0.024124     -0.001383      0.020254

  FREE ENERGIE OF THE ION-ELECTRON SYSTEM (eV)
  free  energy   TOTEN  =      -139.88765942 eV

  energy  without entropy=     -139.88765942  energy(sigma->0) =     -139.88765942

 writing wavefunctions