 vasp.5.4.4.18Apr17-6-g9f103f2a35 (build Nov 21 2017 15:30:27) complex

 executed on             LinuxIFC date 2020.11.09  12:21:59

 INCAR:
 POTCAR:   PAW_PBE Ba_sv 06Sep2000
 POTCAR:   PAW_PBE Si 05Jan2001

 POTCAR:   PAW_PBE Ba_sv 06Sep2000
   VRHFIN =Ba: 5s5p6s

   TITEL  = PAW_PBE Ba_sv 06Sep2000
   POMASS =  137.327; ZVAL   =   10.000    mass and valenz
   ENMAX  =  187.210; ENMIN  =  140.408 eV
   QCUT   =   -3.709; QGAM   =    7.419    optimization parameters

   Description
     l     E      TYP  RCUT    TYP  RCUT
     0   .000     23  2.800
     0   .000     23  2.800
     1   .000     23  2.700
     1  2.000     23  2.700
     2   .000     23  2.700
     2   .000     23  2.700

 POTCAR:   PAW_PBE Si 05Jan2001
   VRHFIN =Si: s2p2

   TITEL  = PAW_PBE Si 05Jan2001
   POMASS =   28.085; ZVAL   =    4.000    mass and valenz
   ENMAX  =  245.345; ENMIN  =  184.009 eV
   QCUT   =   -4.246; QGAM   =    8.493    optimization parameters

   Description
     l     E      TYP  RCUT    TYP  RCUT
     0   .000     23  1.900
     0   .000     23  1.900
     1   .000     23  1.900
     1   .000     23  1.900
     2   .000      7  1.900

 Optimization of the real space projectors (new method)

 maximal supplied QI-value         = 13.42
 optimisation between [QCUT,QGAM] = [ 11.40, 22.81] = [ 36.42,145.68] Ry
 Optimized for a Real-space Cutoff    1.56 Angstroem

   l    n(q)    QCUT    max X(q) W(low)/X(q) W(high)/X(q)  e(spline)
   0     11    11.404     7.198    0.14E-04    0.26E-04    0.99E-07
   0     11    11.404    15.603    0.29E-04    0.72E-04    0.44E-06
   1     10    11.404     3.746    0.20E-04    0.24E-04    0.43E-07
   1     10    11.404     4.362    0.22E-03    0.97E-04    0.22E-06
   2     10    11.404     5.782    0.83E-04    0.62E-05    0.27E-06
   2     10    11.404    65.505    0.42E-03    0.31E-04    0.12E-05
 Optimization of the real space projectors (new method)

 maximal supplied QI-value         = 19.84
 optimisation between [QCUT,QGAM] = [ 11.31, 22.82] = [ 35.82,145.81] Ry
 Optimized for a Real-space Cutoff    1.16 Angstroem

   l    n(q)    QCUT    max X(q) W(low)/X(q) W(high)/X(q)  e(spline)
   0      8    11.310     8.708    0.14E-04    0.11E-04    0.43E-08
   0      8    11.310   106.241    0.27E-03    0.30E-03    0.38E-07
   1      7    11.310     5.901    0.82E-05    0.48E-04    0.19E-07
   1      7    11.310    73.241    0.27E-03    0.27E-03    0.74E-07

 PAW_PBE Ba_sv 06Sep2000                :
 PAW_PBE Si 05Jan2001                   :

 POSCAR: ba8 si16
  positions in direct lattice
  velocities in cartesian coordinates
 exchange correlation table for  LEXCH =       43
   RHO(1)=    0.500       N(1)  =     2000
   RHO(2)=  100.500       N(2)  =     4000

 ion  position               nearest neighbor table
   1  0.011  0.250  0.699-  31 3.26  18 3.34  14 3.34  25 3.46  25 3.46   7 4.41   7 4.41   8 4.44
                             3 4.52
   2  0.149  0.750  0.192-  27 3.38  15 3.40  17 3.40  13 3.42  16 3.42  35 3.49  32 3.57  26 3.58
                            26 3.58   7 3.92   8 4.19   8 4.19
   3  0.163  0.250  0.809-  26 3.26  18 3.39  14 3.39  22 3.43  20 3.43  33 3.48  31 3.52  27 3.56
                            27 3.56   9 4.32   9 4.32  11 4.32   7 4.43   7 4.43   1 4.52
   4  0.325  0.250  0.692-  29 3.38  22 3.40  20 3.40  24 3.42  21 3.42  33 3.49  34 3.57  28 3.58
                            28 3.58  12 3.92  10 4.19  10 4.19
   5  0.311  0.750  0.309-  28 3.26  19 3.39  23 3.39  15 3.43  17 3.43  35 3.48  36 3.52  29 3.56
                            29 3.56  11 4.32  11 4.32   9 4.32  12 4.43  12 4.43   6 4.52
   6  0.463  0.750  0.199-  36 3.26  19 3.34  23 3.34  30 3.46  30 3.46  12 4.41  12 4.41  10 4.44
                             5 4.52
   7  0.068  0.750  0.912-  31 3.38  31 3.38  27 3.39  14 3.41  18 3.41  13 3.42  16 3.42  25 3.58
                             2 3.92   1 4.41   1 4.41   3 4.43   3 4.43
   8  0.109  0.250  0.396-  17 3.34  15 3.34  16 3.42  13 3.42  32 3.47  32 3.47  18 3.51  14 3.51
                            33 3.52  26 3.59   2 4.19   2 4.19   1 4.44
   9  0.210  0.750  0.594-  33 3.38  33 3.38  20 3.44  22 3.44  14 3.44  18 3.44  15 3.46  17 3.46
                            27 3.63  28 3.89  32 3.94   3 4.32   3 4.32   5 4.32
  10  0.365  0.750  0.896-  20 3.34  22 3.34  21 3.42  24 3.42  34 3.47  34 3.47  19 3.51  23 3.51
                            35 3.52  28 3.59   4 4.19   4 4.19   6 4.44
  11  0.264  0.250  0.094-  35 3.38  35 3.38  17 3.44  15 3.44  23 3.44  19 3.44  22 3.46  20 3.46
                            29 3.63  26 3.89  34 3.94   5 4.32   5 4.32   3 4.32
  12  0.406  0.250  0.412-  36 3.38  36 3.38  29 3.39  23 3.41  19 3.41  24 3.42  21 3.42  30 3.58
                             4 3.92   6 4.41   6 4.41   5 4.43   5 4.43
  13  0.056  0.069  0.148-  16 2.39  31 2.41  26 2.48   8 3.42   7 3.42   2 3.42
  14  0.098  0.931  0.641-  18 2.39  32 2.43  25 2.44   1 3.34   3 3.39   7 3.41   9 3.44   8 3.51

  15  0.217  0.067  0.352-  29 2.41  17 2.42  33 2.42   8 3.34   2 3.40   5 3.43  11 3.44   9 3.46

[...]

  36  0.418  0.750  0.463-  21 2.41  24 2.41  28 2.45   6 3.26  12 3.38  12 3.38   5 3.52

  LATTYP: Found a simple orthorhombic cell.
 ALAT       =     6.6162644169
 B/A-ratio  =     1.7145772964
 C/A-ratio  =     4.3072897642

  Lattice vectors:

 A1 = (   0.0000000000,   6.6162644169,   0.0000000000)
 A2 = (   0.0000000000,   0.0000000000, -11.3440967564)
 A3 = ( -28.4981679999,   0.0000000000,   0.0000000000)

Analysis of symmetry for initial positions (statically):
 Subroutine PRICEL returns:
 Original cell was already a primitive cell.

 Routine SETGRP: Setting up the symmetry group for a
 simple orthorhombic supercell.

 Subroutine GETGRP returns: Found  4 space group operations
 (whereof  1 operations were pure point group operations)
 out of a pool of  8 trial point group operations.

The static configuration has the point symmetry C_1 .
 The point group associated with its full space group is C_2v.

Analysis of symmetry for dynamics (positions and initial velocities):
 Subroutine PRICEL returns:
 Original cell was already a primitive cell.

 Routine SETGRP: Setting up the symmetry group for a
 simple orthorhombic supercell.

 Subroutine GETGRP returns: Found  4 space group operations
 (whereof  1 operations were pure point group operations)
 out of a pool of  8 trial point group operations.

The dynamic configuration has the point symmetry C_1 .
 The point group associated with its full space group is C_2v.

 Subroutine INISYM returns: Found  4 space group operations
 (whereof  1 operations are pure point group operations),
 and found     1 'primitive' translations

 KPOINTS: k-density: 8.0

Automatic generation of k-mesh.
Space group operators:
 irot       det(A)        alpha          n_x          n_y          n_z        tau_x        tau_y        tau_z
    1     1.000000     0.000000     1.000000     0.000000     0.000000     0.000000     0.000000     0.000000
    2    -1.000000   180.000000     1.000000     0.000000     0.000000    -0.526054     0.500000    -0.500000
    3     1.000000   180.000000     0.000000     0.000000     1.000000    -0.526054     0.000000    -0.500000
    4    -1.000000   180.000000     0.000000     1.000000     0.000000     0.000000     0.500000     0.000000

 Subroutine IBZKPT returns following result:

 Found     15 irreducible k-points:

 Following reciprocal coordinates:
            Coordinates               Weight
  0.000000  0.000000  0.000000      1.000000
  0.000000  0.125000  0.000000      2.000000
  0.000000  0.250000  0.000000      2.000000
  0.000000  0.375000  0.000000      2.000000
  0.000000  0.500000  0.000000      1.000000
  0.000000  0.000000  0.200000      2.000000
  0.000000  0.125000  0.200000      4.000000
  0.000000  0.250000  0.200000      4.000000
  0.000000  0.375000  0.200000      4.000000
  0.000000  0.500000  0.200000      2.000000
  0.000000  0.000000  0.400000      2.000000
  0.000000  0.125000  0.400000      4.000000
  0.000000  0.250000  0.400000      4.000000
  0.000000  0.375000  0.400000      4.000000
  0.000000  0.500000  0.400000      2.000000

 Following cartesian coordinates:
            Coordinates               Weight
  0.000000  0.000000  0.000000      1.000000
  0.000000  0.018893  0.000000      2.000000
  0.000000  0.037786  0.000000      2.000000
  0.000000  0.056679  0.000000      2.000000
  0.000000  0.075571  0.000000      1.000000
  0.000000  0.000000  0.017630      2.000000
  0.000000  0.018893  0.017630      4.000000
  0.000000  0.037786  0.017630      4.000000
  0.000000  0.056679  0.017630      4.000000
  0.000000  0.075571  0.017630      2.000000
  0.000000  0.000000  0.035261      2.000000
  0.000000  0.018893  0.035261      4.000000
  0.000000  0.037786  0.035261      4.000000
  0.000000  0.056679  0.035261      4.000000
  0.000000  0.075571  0.035261      2.000000

 TETIRR: Found    108 inequivalent tetrahedra from      240

 SYSTEM =  unknown system
 POSCAR =  ba8 si16

 Startparameter for this run:
   NWRITE =      2    write-flag & timer
   PREC   = normal    normal or accurate (medium, high low for compatibility)
   ISTART =      0    job   : 0-new  1-cont  2-samecut
   ICHARG =     11    charge: 1-file 2-atom 10-const
   ISPIN  =      1    spin polarized calculation?
   LNONCOLLINEAR =      F non collinear calculations
   LSORBIT =      F    spin-orbit coupling
   INIWAV =      1    electr: 0-lowe 1-rand  2-diag
   LASPH  =      T    aspherical Exc in radial PAW
   METAGGA=      F    non-selfconsistent MetaGGA calc.

 Electronic Relaxation 1
   ENCUT  =  500.0 eV  36.75 Ry    6.06 a.u.  51.96 12.06 20.68*2*pi/ulx,y,z
   ENINI  =  500.0     initial cutoff
   ENAUG  =  351.2 eV  augmentation charge cutoff
   NELM   =    100;   NELMIN=  2; NELMDL= -5     # of ELM steps
   EDIFF  = 0.1E-05   stopping-criterion for ELM
   LREAL  =      T    real-space projection
   NLSPLINE    = F    spline interpolate recip. space projectors
   LCOMPAT=      F    compatible to vasp.4.4
   GGA_COMPAT  = T    GGA compatible to vasp.4.4-vasp.4.6
   LMAXPAW     = -100 max onsite density
   LMAXMIX     =    2 max onsite mixed and CHGCAR
   VOSKOWN=      0    Vosko Wilk Nusair interpolation
   ROPT   =   -0.00050  -0.00050
 Ionic relaxation
   EDIFFG = -.1E-01   stopping-criterion for IOM
   NSW    =      0    number of steps for IOM
   NBLOCK =      1;   KBLOCK =      1    inner block; outer block
   IBRION =     -1    ionic relax: 0-MD 1-quasi-New 2-CG
   NFREE  =      0    steps in history (QN), initial steepest desc. (CG)
   ISIF   =      2    stress and relaxation
   IWAVPR =     10    prediction:  0-non 1-charg 2-wave 3-comb
   ISYM   =      2    0-nonsym 1-usesym 2-fastsym
   LCORR  =      T    Harris-Foulkes like correction to forces

   POTIM  = 0.3000    time-step for ionic-motion
   TEIN   =    0.0    initial temperature
   TEBEG  =    0.0;   TEEND  =   0.0 temperature during run
   SMASS  =  -3.00    Nose mass-parameter (am)
   estimated Nose-frequenzy (Omega)   =  0.10E-29 period in steps =****** mass=  -0.186E-25a.u.
   SCALEE = 1.0000    scale energy and forces
[...]
[...]
    122       1.8089      0.00000
    123       1.8404      0.00000
    124       1.9091      0.00000
    125       2.0662      0.00000
    126       2.1426      0.00000
    127       2.2300      0.00000
    128       2.2349      0.00000
    129       2.3502      0.00000
    130       2.3873      0.00000
    131       2.5447      0.00000
    132       2.5604      0.00000
    133       2.7366      0.00000
    134       2.7897      0.00000
    135       2.8185      0.00000
    136       2.8886      0.00000

[...]

 k-point    15 :       0.0000    0.5000    0.4000
  band No.  band energies     occupation
      1     -28.6393      2.00000
      2     -28.6388      2.00000
      3     -27.6553      2.00000
      4     -27.6549      2.00000
      5     -27.6321      2.00000
      6     -27.6319      2.00000
      7     -27.5846      2.00000
      8     -27.5843      2.00000
      9     -27.4912      2.00000
     10     -27.4912      2.00000
     11     -27.4559      2.00000
     12     -27.4557      2.00000
     13     -14.0081      2.00000
     14     -14.0076      2.00000
     15     -13.9497      2.00000
     16     -13.9492      2.00000
     17     -13.8881      2.00000
     18     -13.8877      2.00000
     19     -13.2413      2.00000
     20     -13.2411      2.00000
     21     -13.2202      2.00000
     22     -13.2201      2.00000
     23     -13.1505      2.00000
     24     -13.1504      2.00000
     25     -13.1144      2.00000
     26     -13.1143      2.00000
     27     -13.0717      2.00000
     28     -13.0717      2.00000
     29     -13.0429      2.00000
     30     -13.0427      2.00000
     31     -13.0002      2.00000
     32     -13.0000      2.00000
     33     -12.9473      2.00000
     34     -12.9472      2.00000
     35     -12.9230      2.00000
     36     -12.9229      2.00000
     37     -12.8483      2.00000
     38     -12.8482      2.00000
     39     -12.7615      2.00000
     40     -12.7615      2.00000
     41     -12.7514      2.00000
     42     -12.7512      2.00000
     43     -12.7372      2.00000
     44     -12.7371      2.00000
     45     -12.7229      2.00000
     46     -12.7228      2.00000
     47     -12.7191      2.00000
     48     -12.7190      2.00000
     49     -10.6346      2.00000
     50     -10.6344      2.00000
     51     -10.5499      2.00000
     52     -10.5496      2.00000
     53     -10.1438      2.00000
     54     -10.1434      2.00000
     55      -6.2055      2.00000
     56      -6.2054      2.00000
     57      -6.0173      2.00000
     58      -6.0172      2.00000
     59      -5.8619      2.00000
     60      -5.8618      2.00000
[...]
    122       1.6253      0.00000
    123       1.8891      0.00000
    124       1.8891      0.00000
    125       1.9540      0.00000
    126       1.9541      0.00000
    127       2.1309      0.00000
    128       2.1311      0.00000
    129       2.2230      0.00000
    130       2.2244      0.00000
    131       2.3339      0.00000
    132       2.3420      0.00000
    133       2.4616      0.00000
    134       2.4949      0.00000
    135       2.5497      0.00000
    136       2.6163      0.00000

 soft charge-density along one line, spin component           1
         0         1         2         3         4         5         6         7         8         9
 total charge-density along one line

------------------------ aborting loop because EDIFF is reached ----------------------------------------

 total charge

# of ion       s       p       d       tot
    1        2.019   5.567   0.315   7.901
    2        2.018   5.584   0.323   7.925
    3        2.019   5.587   0.331   7.937
    4        2.018   5.584   0.323   7.925
    5        2.019   5.587   0.331   7.937
    6        2.019   5.567   0.315   7.901
    7        2.016   5.577   0.339   7.932
    8        2.012   5.576   0.344   7.933
    9        2.012   5.579   0.326   7.916
   10        2.012   5.576   0.344   7.933
   11        2.012   5.579   0.326   7.916
   12        2.016   5.577   0.339   7.932
   13        0.830   0.807   0.000   1.637
   14        0.799   0.867   0.000   1.666
   15        0.804   0.864   0.000   1.668
   16        0.829   0.805   0.000   1.634
   17        0.804   0.866   0.000   1.670
   18        0.798   0.869   0.000   1.667
   19        0.798   0.869   0.000   1.668
   20        0.804   0.866   0.000   1.670
   21        0.829   0.805   0.000   1.634
   22        0.804   0.864   0.000   1.668
   23        0.799   0.867   0.000   1.666
   24        0.830   0.807   0.000   1.637
   25        0.815   0.815   0.000   1.630
   26        0.805   0.827   0.000   1.632
   27        0.809   0.837   0.000   1.646
   28        0.805   0.827   0.000   1.632
   29        0.809   0.837   0.000   1.646
   30        0.815   0.815   0.000   1.630
   31        0.788   0.875   0.000   1.663
   32        0.824   0.803   0.000   1.626
   33        0.804   0.858   0.000   1.662
   34        0.824   0.803   0.000   1.626
   35        0.804   0.858   0.000   1.662
   36        0.788   0.875   0.000   1.663
tot         43.606  87.129   3.957 134.691

  FORCE on cell =-STRESS in cart. coord.  units (eV):
  Direction    XX          YY          ZZ          XY          YZ          ZX
  Alpha Z   338.54128   338.54128   338.54128
  Ewald  -40697.18148 34696.36341 34240.76545    -0.00003     0.00001    -0.00012
  Hartree-35954.95183 37203.22240 36846.64478     0.00000     0.00000     0.00001
  E(xc)    -697.61338  -699.10439  -699.19285    -0.00000     0.00000    -0.00001
  Local   74433.23898-74134.00000-73314.16811     0.00002    -0.00001     0.00007
  n-local   506.60812   508.87465   511.12583     0.00002    -0.19649     0.00282
  augment  -251.65093  -252.10315  -252.20848    -0.00000     0.00000     0.00034
  Kinetic  2322.88786  2337.99170  2328.48763    -0.00001    -1.36197    -0.00019
  Fock        0.00000     0.00000     0.00000     0.00000     0.00000     0.00000
  Total      -0.12139    -0.21410    -0.00448     0.00000     0.00000     0.00000
  in kB      -0.09093    -0.16037    -0.00335     0.00000     0.00000     0.00000

 VOLUME and BASIS-vectors are now :
  energy-cutoff  :      500.00
  volume of cell :     2138.95
      direct lattice vectors                 reciprocal lattice vectors
    28.498168000  0.000000000  0.000000000     0.035089975  0.000000000  0.000000000
     0.000000000  6.616264417  0.000000000     0.000000000  0.151142690  0.000000000
     0.000000000  0.000000000 11.344096756     0.000000000  0.000000000  0.088151575

  length of vectors
    28.498168000  6.616264417 11.344096756     0.035089975  0.151142690  0.088151575

 FORCES acting on ions
    electron-ion (+dipol)            ewald-force                    non-local-force                 convergence-correction
   0.115E+04 -.958E-04 0.351E+02   -.114E+04 0.108E-04 -.339E+02   -.387E+01 -.227E-18 -.116E+01   0.317E-02 -.867E-05 -.476E-02
   0.518E+03 -.161E-03 -.252E+02   -.518E+03 -.195E-04 0.248E+02   0.111E-01 0.523E-19 0.357E+00   -.369E-02 0.407E-04 -.612E-03
   0.403E+03 -.746E-04 0.952E+00   -.403E+03 0.149E-04 -.393E+00   0.408E+00 0.269E-18 -.564E+00   0.532E-02 -.125E-04 0.195E-02
   -.518E+03 -.775E-04 -.252E+02   0.518E+03 0.141E-04 0.248E+02   -.111E-01 0.107E-19 0.357E+00   0.753E-02 -.118E-04 0.182E-03
   -.403E+03 -.157E-03 0.952E+00   0.403E+03 -.203E-04 -.393E+00   -.408E+00 0.361E-18 -.564E+00   -.257E-02 0.411E-04 0.145E-02
   -.115E+04 -.129E-03 0.351E+02   0.114E+04 -.139E-04 -.339E+02   0.387E+01 0.117E-18 -.116E+01   0.520E-03 0.378E-04 -.458E-02
   0.960E+03 -.151E-03 -.459E+02   -.960E+03 -.183E-04 0.458E+02   -.870E+00 -.323E-18 0.569E-01   -.144E-02 0.388E-04 0.327E-02
   0.784E+03 -.106E-03 0.116E+02   -.783E+03 0.144E-04 -.119E+02   -.113E+01 0.456E-17 0.320E+00   -.102E-02 -.118E-04 -.110E-02
   0.136E+03 -.152E-03 0.157E+02   -.137E+03 -.179E-04 -.156E+02   0.599E+00 -.323E-18 -.945E-01   -.105E-02 0.392E-04 -.416E-02
   -.784E+03 -.138E-03 0.116E+02   0.783E+03 -.149E-04 -.119E+02   0.113E+01 -.394E-17 0.320E+00   0.486E-02 0.386E-04 -.134E-02
   -.136E+03 -.793E-04 0.157E+02   0.137E+03 0.171E-04 -.156E+02   -.599E+00 -.862E-18 -.945E-01   0.442E-02 -.141E-04 -.335E-02
   -.960E+03 -.789E-04 -.459E+02   0.960E+03 0.165E-04 0.458E+02   0.870E+00 0.118E-17 0.569E-01   0.554E-02 -.134E-04 0.415E-02
   0.446E+03 0.358E+02 -.437E+02   -.445E+03 -.373E+02 0.446E+02   -.382E+00 0.150E+01 -.832E+00   -.805E-03 -.440E-04 0.692E-03
   0.293E+03 -.282E+02 0.689E+01   -.292E+03 0.294E+02 -.614E+01   -.549E+00 -.119E+01 -.747E+00   -.193E-02 -.509E-03 -.214E-02
   0.612E+02 0.326E+02 0.177E+02   -.619E+02 -.339E+02 -.184E+02   0.631E+00 0.132E+01 0.743E+00   -.119E-02 0.129E-03 0.332E-03
   0.446E+03 -.358E+02 -.437E+02   -.445E+03 0.373E+02 0.446E+02   -.382E+00 -.150E+01 -.832E+00   -.808E-03 0.393E-04 0.693E-03
   0.612E+02 -.326E+02 0.177E+02   -.619E+02 0.339E+02 -.184E+02   0.631E+00 -.132E+01 0.743E+00   -.119E-02 -.135E-03 0.332E-03
   0.293E+03 0.282E+02 0.689E+01   -.292E+03 -.294E+02 -.614E+01   -.549E+00 0.119E+01 -.747E+00   -.193E-02 0.513E-03 -.214E-02
   -.293E+03 0.282E+02 0.689E+01   0.292E+03 -.294E+02 -.614E+01   0.549E+00 0.119E+01 -.747E+00   0.140E-02 0.510E-03 -.223E-02
   -.612E+02 -.326E+02 0.177E+02   0.619E+02 0.339E+02 -.184E+02   -.631E+00 -.132E+01 0.743E+00   0.150E-02 0.132E-03 0.463E-03
   -.446E+03 -.358E+02 -.437E+02   0.445E+03 0.373E+02 0.446E+02   0.382E+00 -.150E+01 -.832E+00   0.158E-02 0.654E-04 0.738E-03
   -.612E+02 0.326E+02 0.177E+02   0.619E+02 -.339E+02 -.184E+02   -.631E+00 0.132E+01 0.743E+00   0.150E-02 -.129E-03 0.462E-03
   -.293E+03 -.282E+02 0.689E+01   0.292E+03 0.294E+02 -.614E+01   0.549E+00 -.119E+01 -.747E+00   0.140E-02 -.517E-03 -.223E-02
   -.446E+03 0.358E+02 -.437E+02   0.445E+03 -.373E+02 0.446E+02   0.382E+00 0.150E+01 -.832E+00   0.158E-02 -.629E-04 0.740E-03
   0.488E+03 -.750E-05 0.324E+02   -.489E+03 -.717E-05 -.319E+02   0.164E+01 0.318E-18 -.466E+00   0.530E-03 0.537E-05 -.135E-02
   0.213E+03 0.553E-05 -.124E+02   -.211E+03 0.831E-05 0.118E+02   -.208E+01 -.279E-18 0.558E+00   -.851E-03 -.700E-05 0.118E-02
   0.145E+03 -.108E-05 -.417E+01   -.146E+03 -.787E-05 0.485E+01   0.189E+01 0.832E-18 -.680E+00   0.703E-04 0.743E-05 0.105E-02
   -.213E+03 -.488E-05 -.124E+02   0.211E+03 -.794E-05 0.118E+02   0.208E+01 0.134E-18 0.558E+00   0.148E-02 0.703E-05 0.914E-03
   -.145E+03 -.207E-05 -.417E+01   0.146E+03 0.806E-05 0.485E+01   -.189E+01 0.708E-18 -.680E+00   -.505E-03 -.685E-05 0.423E-03
   -.488E+03 -.446E-05 0.324E+02   0.489E+03 0.743E-05 -.319E+02   -.164E+01 0.392E-18 -.466E+00   0.279E-03 -.602E-05 -.156E-02
   0.423E+03 0.379E-05 0.256E+01   -.423E+03 0.822E-05 -.413E+01   0.200E+00 0.101E-17 0.156E+01   -.102E-02 -.652E-05 0.131E-02
   0.367E+03 -.222E-04 0.641E+02   -.366E+03 -.784E-05 -.662E+02   -.656E+00 -.173E-17 0.209E+01   -.823E-03 0.603E-05 0.171E-03
   0.489E+02 -.203E-05 -.350E+02   -.490E+02 0.880E-05 0.367E+02   0.127E+00 0.244E-17 -.160E+01   -.562E-03 -.711E-05 -.108E-02
   -.367E+03 0.228E-04 0.641E+02   0.366E+03 0.758E-05 -.662E+02   0.656E+00 -.146E-17 0.209E+01   0.114E-02 -.620E-05 -.169E-03
   -.489E+02 0.828E-05 -.350E+02   0.490E+02 -.924E-05 0.367E+02   -.127E+00 -.138E-17 -.160E+01   0.399E-03 0.751E-05 -.550E-03
   -.423E+03 0.143E-04 0.256E+01   0.423E+03 -.822E-05 -.413E+01   -.200E+00 -.567E-18 0.156E+01   0.167E-02 0.662E-05 0.153E-02
   -.391E-03 -.154E-02 0.260E+01   0.119E-11 0.250E-13 -.102E-12   -.111E-14 -.888E-15 -.258E+01   0.245E-01 0.155E-03 -.113E-01

 POSITION                                       TOTAL-FORCE (eV/Angst)
      0.30588      1.65407      7.92439         0.009163      0.000000     -0.003348
      4.24167      4.96220      2.17338        -0.003061      0.000000     -0.005737
      4.65066      1.65407      9.18061        -0.007544      0.000000     -0.003877
      9.26494      1.65407      7.84543         0.003061      0.000000     -0.005737
      8.85594      4.96220      3.50856         0.007544      0.000000     -0.003877
     13.20072      4.96220      2.25234        -0.009163      0.000000     -0.003348
      1.94141      4.96220     10.34595         0.004222      0.000000      0.002768
      3.11776      1.65407      4.48750        -0.004204      0.000000      0.003694
      5.98544      4.96220      6.74142         0.001233      0.000000      0.000913
     10.38884      4.96220     10.15954         0.004204      0.000000      0.003694
      7.52116      1.65407      1.06937        -0.001233      0.000000      0.000913
     11.56519      1.65407      4.67391        -0.004222      0.000000      0.002768
      1.59230      0.45796      1.67351        -0.001038      0.003708     -0.009180
      2.80409      6.15706      7.27368        -0.001759     -0.000271     -0.002803
      6.19202      0.44520      3.99792        -0.006014     -0.005492      0.002137
      1.59230      2.85017      1.67351        -0.001038     -0.003708     -0.009180
      6.19202      2.86293      3.99792        -0.006014      0.005492      0.002137
      2.80409      3.76733      7.27368        -0.001759      0.000271     -0.002803
     10.70251      0.45920      1.60164         0.001759      0.000271     -0.002803
      7.31458      6.17106      9.66996         0.006014      0.005492      0.002137
     11.91430      6.15831      7.34556         0.001038     -0.003708     -0.009180
      7.31458      3.75333      9.66996         0.006014     -0.005492      0.002137
     10.70251      2.84893      1.60164         0.001759     -0.000271     -0.002803
     11.91430      3.76609      7.34556         0.001038      0.003708     -0.009180
      0.69294      4.96220      6.98703        -0.010588      0.000000      0.017191
      3.63201      1.65407      0.93513         0.006353      0.000000     -0.002247
      5.33243      4.96220     10.31334        -0.008802      0.000000      0.004138
      9.87459      4.96220      6.60718        -0.006353      0.000000     -0.002247
      8.17417      1.65407      4.64129         0.008802      0.000000      0.004138
     12.81366      1.65407      1.31498         0.010588      0.000000      0.017191
      1.59251      1.65407     10.92453         0.000565      0.000000     -0.005503
      2.35566      4.96220      5.21032        -0.015748      0.000000     -0.002178
      6.24545      1.65407      6.09230        -0.004219      0.000000      0.013878
     11.15094      1.65407     10.88237         0.015748      0.000000     -0.002178
      7.26115      4.96220      0.42025         0.004219      0.000000      0.013878
     11.91409      4.96220      5.25248        -0.000565      0.000000     -0.005503
    total drift:                                0.024122     -0.001383      0.007841

  FREE ENERGIE OF THE ION-ELECTRON SYSTEM (eV)
  free  energy   TOTEN  =      -139.91340668 eV

  energy  without entropy=     -139.91340668  energy(sigma->0) =     -139.91340668

 writing wavefunctions

 total charge

# of ion       s       p       d       tot
    1        2.019   5.567   0.315   7.901
    2        2.018   5.584   0.323   7.925
    3        2.019   5.587   0.331   7.937
    4        2.018   5.584   0.323   7.925
    5        2.019   5.587   0.331   7.937
    6        2.019   5.567   0.315   7.901
    7        2.016   5.577   0.339   7.932
    8        2.012   5.576   0.344   7.933
    9        2.012   5.579   0.326   7.916
   10        2.012   5.576   0.344   7.933
   11        2.012   5.579   0.326   7.916
   12        2.016   5.577   0.339   7.932
   13        0.830   0.807   0.000   1.637
   14        0.799   0.867   0.000   1.666
   15        0.804   0.864   0.000   1.668
   16        0.829   0.805   0.000   1.634
   17        0.804   0.866   0.000   1.670
   18        0.798   0.869   0.000   1.667
   19        0.798   0.869   0.000   1.668
   20        0.804   0.866   0.000   1.670
   21        0.829   0.805   0.000   1.634
   22        0.804   0.864   0.000   1.668
   23        0.799   0.867   0.000   1.666
   24        0.830   0.807   0.000   1.637
   25        0.815   0.815   0.000   1.630
   26        0.805   0.827   0.000   1.632
   27        0.809   0.837   0.000   1.646
   28        0.805   0.827   0.000   1.632
   29        0.809   0.837   0.000   1.646
   30        0.815   0.815   0.000   1.630
   31        0.788   0.875   0.000   1.663
   32        0.824   0.803   0.000   1.626
   33        0.804   0.858   0.000   1.662
   34        0.824   0.803   0.000   1.626
   35        0.804   0.858   0.000   1.662
   36        0.788   0.875   0.000   1.663
tot         43.606  87.129   3.957 134.691

 BZINTS: Fermi energy: -0.277500;216.000000 electrons
         Band energy:***********;  BLOECHL correction:  0.000000