 vasp.5.4.4.18Apr17-6-g9f103f2a35 (build Nov 21 2017 15:30:27) complex

 executed on             LinuxIFC date 2020.09.14  15:50:22

 INCAR:
 POTCAR:   PAW_PBE Ba_sv 06Sep2000
 POTCAR:   PAW_PBE Si 05Jan2001

 POTCAR:   PAW_PBE Ba_sv 06Sep2000
   VRHFIN =Ba: 5s5p6s

   TITEL  = PAW_PBE Ba_sv 06Sep2000
   POMASS =  137.327; ZVAL   =   10.000    mass and valenz
   ENMAX  =  187.210; ENMIN  =  140.408 eV
   QCUT   =   -3.709; QGAM   =    7.419    optimization parameters

   Description
     l     E      TYP  RCUT    TYP  RCUT
     0   .000     23  2.800
     0   .000     23  2.800
     1   .000     23  2.700
     1  2.000     23  2.700
     2   .000     23  2.700
     2   .000     23  2.700

 POTCAR:   PAW_PBE Si 05Jan2001
   VRHFIN =Si: s2p2

   TITEL  = PAW_PBE Si 05Jan2001
   POMASS =   28.085; ZVAL   =    4.000    mass and valenz
   ENMAX  =  245.345; ENMIN  =  184.009 eV
   QCUT   =   -4.246; QGAM   =    8.493    optimization parameters

   Description
     l     E      TYP  RCUT    TYP  RCUT
     0   .000     23  1.900
     0   .000     23  1.900
     1   .000     23  1.900
     1   .000     23  1.900
     2   .000      7  1.900

 Optimization of the real space projectors (new method)

 maximal supplied QI-value         = 13.42
 optimisation between [QCUT,QGAM] = [ 11.40, 22.81] = [ 36.42,145.68] Ry
 Optimized for a Real-space Cutoff    1.56 Angstroem

   l    n(q)    QCUT    max X(q) W(low)/X(q) W(high)/X(q)  e(spline)
   0     11    11.404     7.198    0.14E-04    0.26E-04    0.99E-07
   0     11    11.404    15.603    0.29E-04    0.72E-04    0.44E-06
   1     10    11.404     3.746    0.20E-04    0.24E-04    0.43E-07
   1     10    11.404     4.362    0.22E-03    0.97E-04    0.22E-06
   2     10    11.404     5.782    0.83E-04    0.62E-05    0.27E-06
   2     10    11.404    65.505    0.42E-03    0.31E-04    0.12E-05
 Optimization of the real space projectors (new method)

 maximal supplied QI-value         = 19.84
 optimisation between [QCUT,QGAM] = [ 11.31, 22.82] = [ 35.82,145.81] Ry
 Optimized for a Real-space Cutoff    1.16 Angstroem

   l    n(q)    QCUT    max X(q) W(low)/X(q) W(high)/X(q)  e(spline)
   0      8    11.310     8.708    0.14E-04    0.11E-04    0.43E-08
   0      8    11.310   106.241    0.27E-03    0.30E-03    0.38E-07
   1      7    11.310     5.901    0.82E-05    0.48E-04    0.19E-07
   1      7    11.310    73.241    0.27E-03    0.27E-03    0.74E-07
 PAW_PBE Ba_sv 06Sep2000                :
 PAW_PBE Si 05Jan2001                   :

 POSCAR: ba8 si16
  positions in direct lattice
  velocities in cartesian coordinates
 exchange correlation table for  LEXCH =        8
   RHO(1)=    0.500       N(1)  =     2000
   RHO(2)=  100.500       N(2)  =     4000

 ion  position               nearest neighbor table
   1  0.006  0.250  0.703-  21 3.40  16 3.44  11 3.44  17 3.65  17 3.65   5 4.38   5 4.38   7 4.63

   2  0.388  0.750  0.297-  22 3.40  12 3.44  15 3.44  18 3.65  18 3.65   6 4.38   6 4.38   8 4.63

   3  0.182  0.750  0.185-  20 3.34   9 3.45  14 3.45  19 3.66  19 3.66  12 3.67  15 3.67  22 3.71
                            23 3.77   5 4.29   7 4.36   7 4.36
   4  0.212  0.250  0.815-  19 3.34  13 3.45  10 3.45  20 3.66  20 3.66  16 3.67  11 3.67  21 3.71
                            24 3.77   6 4.29   8 4.36   8 4.36
   5  0.060  0.750  0.914-   9 3.43  14 3.43  21 3.45  21 3.45  11 3.46  16 3.46  17 3.71   3 4.29
                             1 4.38   1 4.38
   6  0.334  0.250  0.086-  13 3.43  10 3.43  22 3.45  22 3.45  15 3.46  12 3.46  18 3.71   4 4.29
                             2 4.38   2 4.38
   7  0.128  0.250  0.394-  14 3.43   9 3.43  23 3.54  23 3.54  19 3.72  16 3.79  11 3.79  15 3.88
                            12 3.88   3 4.36   3 4.36   1 4.63
   8  0.266  0.750  0.606-  10 3.43  13 3.43  24 3.54  24 3.54  20 3.72  12 3.79  15 3.79  11 3.88
                            16 3.88   4 4.36   4 4.36   2 4.63
   9  0.073  0.073  0.141-  14 2.40  21 2.43  19 2.45   7 3.43   5 3.43   3 3.45
  10  0.321  0.927  0.859-  13 2.40  22 2.43  20 2.45   8 3.43   6 3.43   4 3.45
  11  0.115  0.929  0.660-  16 2.42  23 2.44  17 2.45   1 3.44   5 3.46   4 3.67   7 3.79   8 3.88

[...]

  17  0.031  0.750  0.600-  23 2.43  11 2.45  16 2.45   1 3.65   1 3.65   5 3.71
  18  0.363  0.250  0.400-  24 2.43  15 2.45  12 2.45   2 3.65   2 3.65   6 3.71
  19  0.157  0.250  0.079-  21 2.42  14 2.45   9 2.45   4 3.34   3 3.66   3 3.66   7 3.72
  20  0.237  0.750  0.921-  22 2.42  10 2.45  13 2.45   3 3.34   4 3.66   4 3.66   8 3.72
  21  0.074  0.250  0.959-  19 2.42  14 2.43   9 2.43   1 3.40   5 3.45   5 3.45   4 3.71
  22  0.320  0.750  0.041-  20 2.42  10 2.43  13 2.43   2 3.40   6 3.45   6 3.45   3 3.71
  23  0.113  0.750  0.477-  17 2.43  11 2.44  16 2.44   7 3.54   7 3.54   3 3.77
  24  0.281  0.250  0.523-  18 2.43  15 2.44  12 2.44   8 3.54   8 3.54   4 3.77

  LATTYP: Found a simple orthorhombic cell.
 ALAT       =     6.7778496742
 B/A-ratio  =     1.7117734747
 C/A-ratio  =     3.5423429602

  Lattice vectors:

 A1 = (   0.0000000000,   6.7778496742,   0.0000000000)
 A2 = (   0.0000000000,   0.0000000000, -11.6021432877)
 A3 = ( -24.0094680786,   0.0000000000,   0.0000000000)

Analysis of symmetry for initial positions (statically):
 Subroutine PRICEL returns:
 Original cell was already a primitive cell.

 Routine SETGRP: Setting up the symmetry group for a
 simple orthorhombic supercell.

 Subroutine GETGRP returns: Found  4 space group operations
 (whereof  1 operations were pure point group operations)
 out of a pool of  8 trial point group operations.

The static configuration has the point symmetry C_1 .
 The point group associated with its full space group is C_2h.

Analysis of symmetry for dynamics (positions and initial velocities):
 Subroutine PRICEL returns:
 Original cell was already a primitive cell.

[...]

The dynamic configuration has the point symmetry C_1 .
 The point group associated with its full space group is C_2h.

Analysis of constrained symmetry for selective dynamics:
 Subroutine PRICEL returns:
 Original cell was already a primitive cell.

 Routine SETGRP: Setting up the symmetry group for a
 simple orthorhombic supercell.

 Subroutine GETGRP returns: Found  4 space group operations
 (whereof  1 operations were pure point group operations)
 out of a pool of  8 trial point group operations.

The constrained configuration has the point symmetry C_1 .
 The point group associated with its full space group is C_2h.

 Subroutine INISYM returns: Found  4 space group operations
 (whereof  1 operations are pure point group operations),
 and found     1 'primitive' translations

 KPOINTS: k-density: 8.0

Automatic generation of k-mesh.
Space group operators:
 irot       det(A)        alpha          n_x          n_y          n_z        tau_x        tau_y        tau_z
    1     1.000000     0.000000     1.000000     0.000000     0.000000     0.000000     0.000000     0.000000
    2    -1.000000     0.000000     1.000000     0.000000     0.000000    -0.606011     0.000000     0.000000
    3     1.000000   180.000000     0.000000     1.000000     0.000000    -0.606011     0.500000     0.000000
    4    -1.000000   180.000000     0.000000     1.000000     0.000000     0.000000     0.500000     0.000000

 Subroutine IBZKPT returns following result:

 Found     15 irreducible k-points:

 Following reciprocal coordinates:
            Coordinates               Weight
  0.000000  0.000000  0.000000      1.000000
  0.000000  0.125000  0.000000      2.000000
  0.000000  0.250000  0.000000      2.000000
  0.000000  0.375000  0.000000      2.000000
  0.000000  0.500000  0.000000      1.000000
  0.000000  0.000000  0.200000      2.000000
  0.000000  0.125000  0.200000      4.000000
  0.000000  0.250000  0.200000      4.000000
  0.000000  0.375000  0.200000      4.000000
  0.000000  0.500000  0.200000      2.000000
  0.000000  0.000000  0.400000      2.000000
  0.000000  0.125000  0.400000      4.000000
  0.000000  0.250000  0.400000      4.000000
  0.000000  0.375000  0.400000      4.000000
  0.000000  0.500000  0.400000      2.000000

 Following cartesian coordinates:
            Coordinates               Weight
  0.000000  0.000000  0.000000      1.000000
  0.000000  0.018442  0.000000      2.000000
  0.000000  0.036885  0.000000      2.000000
  0.000000  0.055327  0.000000      2.000000
  0.000000  0.073770  0.000000      1.000000
  0.000000  0.000000  0.017238      2.000000
  0.000000  0.018442  0.017238      4.000000
  0.000000  0.036885  0.017238      4.000000
  0.000000  0.055327  0.017238      4.000000
  0.000000  0.073770  0.017238      2.000000
  0.000000  0.000000  0.034476      2.000000
  0.000000  0.018442  0.034476      4.000000
  0.000000  0.036885  0.034476      4.000000
  0.000000  0.055327  0.034476      4.000000
  0.000000  0.073770  0.034476      2.000000

 TETIRR: Found    108 inequivalent tetrahedra from      240

 SYSTEM =  unknown system
 POSCAR =  ba8 si16

 Startparameter for this run:
   NWRITE =      2    write-flag & timer
   PREC   = normal    normal or accurate (medium, high low for compatibility)
   ISTART =      0    job   : 0-new  1-cont  2-samecut
   ICHARG =      2    charge: 1-file 2-atom 10-const
   ISPIN  =      1    spin polarized calculation?
   LNONCOLLINEAR =      F non collinear calculations
   LSORBIT =      F    spin-orbit coupling
   INIWAV =      1    electr: 0-lowe 1-rand  2-diag
   LASPH  =      F    aspherical Exc in radial PAW
   METAGGA=      F    non-selfconsistent MetaGGA calc.

 Electronic Relaxation 1
   ENCUT  =  500.0 eV  36.75 Ry    6.06 a.u.  43.77 12.36 21.15*2*pi/ulx,y,z
   ENINI  =  500.0     initial cutoff
   ENAUG  =  351.2 eV  augmentation charge cutoff
   NELM   =    100;   NELMIN=  2; NELMDL= -5     # of ELM steps
   EDIFF  = 0.1E-05   stopping-criterion for ELM
   LREAL  =      T    real-space projection
   NLSPLINE    = F    spline interpolate recip. space projectors
   LCOMPAT=      F    compatible to vasp.4.4
   GGA_COMPAT  = T    GGA compatible to vasp.4.4-vasp.4.6
   LMAXPAW     = -100 max onsite density
   LMAXMIX     =    2 max onsite mixed and CHGCAR
   VOSKOWN=      0    Vosko Wilk Nusair interpolation
   ROPT   =   -0.00050  -0.00050
 Ionic relaxation
   EDIFFG = -.1E-02   stopping-criterion for IOM
   NSW    =      0    number of steps for IOM
   NBLOCK =      1;   KBLOCK =      1    inner block; outer block
   IBRION =     -1    ionic relax: 0-MD 1-quasi-New 2-CG
   NFREE  =      0    steps in history (QN), initial steepest desc. (CG)
   ISIF   =      2    stress and relaxation
   IWAVPR =     10    prediction:  0-non 1-charg 2-wave 3-comb
   ISYM   =      2    0-nonsym 1-usesym 2-fastsym
   LCORR  =      T    Harris-Foulkes like correction to forces

   POTIM  = 0.3000    time-step for ionic-motion
   TEIN   =    0.0    initial temperature
   TEBEG  =    0.0;   TEEND  =   0.0 temperature during run
   SMASS  =  -3.00    Nose mass-parameter (am)
   estimated Nose-frequenzy (Omega)   =  0.10E-29 period in steps =****** mass=  -0.132E-25a.u.
   SCALEE = 1.0000    scale energy and forces
   NPACO  =    256;   APACO  = 16.0  distance and # of slots for P.C.
[...]
  -Hartree energ DENC   =    -17271.98172295
  -exchange      EXHF   =         0.00000000
  -V(xc)+E(xc)   XCENC  =        41.57585558
  PAW double counting   =      3692.15173346    -3390.49189382
  entropy T*S    EENTRO =         0.00000000
  eigenvalues    EBANDS =      -462.89357759
  atomic energy  EATOM  =      7250.85976021
  Solvation  Ediel_sol  =         0.00000000
  free energy    TOTEN  =      1180.67042326 eV

  energy without entropy =     1180.67042326  energy(sigma->0) =     1180.67042326

[...]

 eigenvalue-minimisations  :  3840
 total energy-change (2. order) :-0.1121746E+04  (-0.1094351E+04)
 number of electron     144.0000000 magnetization
 augmentation part      144.0000000 magnetization

[...]

 Broyden mixing:
  rms(total) = 0.92297E+00    rms(broyden)= 0.92296E+00
  rms(prec ) = 0.11936E+01
  weight for this iteration     100.00

[...]

 eigenvalues of (default mixing * dielectric matrix)
  average eigenvalue GAMMA=   1.5431
  1.5431

[...]

 eigenvalue-minimisations  :  3136
 total energy-change (2. order) : 0.7929499E-02  (-0.7402877E-02)
 number of electron     144.0000005 magnetization
 augmentation part      -17.6415872 magnetization

[...]

 Broyden mixing:
  rms(total) = 0.14370E-04    rms(broyden)= 0.14370E-04
  rms(prec ) = 0.20864E-04
  weight for this iteration     100.00

 eigenvalues of (default mixing * dielectric matrix)
  average eigenvalue GAMMA=   2.3696
  9.0619  6.9715  3.8784  3.8784  2.7091  2.6441  1.9265  1.9265  0.9068  0.9068
  1.2419  1.2419  1.3029  1.3029  1.2510  0.9903  0.9903  0.9459  0.9459

[...]

--------------------------------------- Iteration      1(  25)  ---------------------------------------

 BZINTS: Fermi energy: -0.487651;144.000000 electrons
         Band energy:***********;  BLOECHL correction:  0.000000

 eigenvalue-minimisations  :  1912
 total energy-change (2. order) :-0.7097360E-06  (-0.1459919E-07)
 number of electron     144.0000005 magnetization
 augmentation part      -17.6403529 magnetization

 Free energy of the ion-electron system (eV)
  alpha Z        PSCENC =       170.45750602
  Ewald energy   TEWEN  =     11150.99276235
  -Hartree energ DENC   =    -17575.95650337
  -exchange      EXHF   =         0.00000000
  -V(xc)+E(xc)   XCENC  =        48.97651551
  PAW double counting   =      3820.61516623    -3534.34114354
  entropy T*S    EENTRO =         0.00000000
  eigenvalues    EBANDS =     -1436.28633254
  atomic energy  EATOM  =      7250.85976021
  Solvation  Ediel_sol  =         0.00000000
  free energy    TOTEN  =      -104.68226913 eV

  energy without entropy =     -104.68226913  energy(sigma->0) =     -104.68226913

 average (electrostatic) potential at core
  the test charge radii are     1.2192  0.9892
  (the norm of the test charge is              1.0000)
       1 -41.8670       2 -41.8670       3 -40.3893       4 -40.3893       5 -40.8671
       6 -40.8671       7 -40.9890       8 -40.9890       9 -88.7805      10 -88.7804
      11 -89.1787      12 -89.1787      13 -88.7804      14 -88.7804      15 -89.1787
      16 -89.1787      17 -89.2282      18 -89.2282      19 -88.7866      20 -88.7866
      21 -88.9596      22 -88.9596      23 -89.1688      24 -89.1688

 E-fermi :  -0.4877     XC(G=0):  -4.0234     alpha+bet : -3.8451

 k-point     1 :       0.0000    0.0000    0.0000
  band No.  band energies     occupation
      1     -29.4813      2.00000
      2     -29.4812      2.00000
      3     -28.6028      2.00000
      4     -28.6016      2.00000
      5     -28.5116      2.00000
      6     -28.5115      2.00000
      7     -28.0359      2.00000
      8     -28.0351      2.00000
      9     -14.8287      2.00000
     10     -14.8283      2.00000
     11     -14.7535      2.00000
     12     -14.7533      2.00000
     13     -14.6687      2.00000
     14     -14.6687      2.00000
     15     -13.9544      2.00000
     16     -13.9539      2.00000
     17     -13.9498      2.00000
     18     -13.9391      2.00000
     19     -13.8876      2.00000
     20     -13.8679      2.00000
     21     -13.8593      2.00000
     22     -13.8293      2.00000
     23     -13.7817      2.00000
     24     -13.7782      2.00000
     25     -13.7597      2.00000
     26     -13.7579      2.00000
     27     -13.3953      2.00000
     28     -13.3695      2.00000
     29     -13.3214      2.00000
     30     -13.3136      2.00000
     31     -13.3129      2.00000
     32     -13.3036      2.00000
     33     -11.0095      2.00000
     34     -10.9655      2.00000
     35     -10.7000      2.00000
     36     -10.6785      2.00000
     37      -6.2889      2.00000
     38      -6.2794      2.00000
     39      -6.1004      2.00000
     40      -6.0762      2.00000
     41      -6.0701      2.00000
     42      -6.0456      2.00000
     43      -5.9430      2.00000
     44      -5.8930      2.00000
     45      -5.8104      2.00000
     46      -5.6428      2.00000
     47      -5.6295      2.00000
     48      -5.6226      2.00000
     49      -3.4471      2.00000
     50      -3.0435      2.00000
     51      -2.5334      2.00000
     52      -2.5215      2.00000
     53      -2.3593      2.00000
     54      -2.1239      2.00000
     55      -1.8824      2.00000
     56      -1.7959      2.00000
     57      -1.7196      2.00000
     58      -1.7181      2.00000
     59      -1.6829      2.00000
     60      -1.5950      2.00000
[...]
     74       0.5168      0.00000
     75       0.6683      0.00000
     76       0.7938      0.00000
     77       0.8281      0.00000
     78       0.9445      0.00000
     79       1.0296      0.00000
     80       1.2691      0.00000
     81       1.3032      0.00000
     82       1.3835      0.00000
     83       1.4056      0.00000
     84       1.4637      0.00000
     85       1.4656      0.00000
     86       1.5261      0.00000
     87       1.6397      0.00000
     88       1.7394      0.00000

[...]

 k-point    15 :       0.0000    0.5000    0.4000
  band No.  band energies     occupation
      1     -29.4812      2.00000
      2     -29.4811      2.00000
      3     -28.6020      2.00000
      4     -28.6020      2.00000
      5     -28.5116      2.00000
      6     -28.5116      2.00000
      7     -28.0356      2.00000
      8     -28.0356      2.00000
      9     -14.8256      2.00000
     10     -14.8256      2.00000
     11     -14.7583      2.00000
     12     -14.7583      2.00000
     13     -14.6829      2.00000
     14     -14.6829      2.00000
     15     -13.9561      2.00000
     16     -13.9561      2.00000
     17     -13.9435      2.00000
     18     -13.9435      2.00000
     19     -13.8973      2.00000
     20     -13.8973      2.00000
     21     -13.8435      2.00000
     22     -13.8435      2.00000
     23     -13.7817      2.00000
     24     -13.7817      2.00000
     25     -13.7749      2.00000
     26     -13.7749      2.00000
     27     -13.3786      2.00000
     28     -13.3786      2.00000
     29     -13.3237      2.00000
     30     -13.3237      2.00000
     31     -13.3019      2.00000
     32     -13.3019      2.00000
     33     -10.9378      2.00000
     34     -10.9378      2.00000
     35     -10.6359      2.00000
     36     -10.6359      2.00000
     37      -6.3613      2.00000
     38      -6.3613      2.00000
     39      -6.0813      2.00000
     40      -6.0812      2.00000
     41      -6.0231      2.00000
     42      -6.0231      2.00000
     43      -5.7940      2.00000
     44      -5.7940      2.00000
     45      -5.7661      2.00000
     46      -5.7660      2.00000
     47      -5.6542      2.00000
     48      -5.6541      2.00000
     49      -2.6092      2.00000
     50      -2.6091      2.00000
     51      -2.4881      2.00000
     52      -2.4881      2.00000
     53      -2.0721      2.00000
     54      -2.0721      2.00000
     55      -2.0222      2.00000
     56      -2.0222      2.00000
     57      -1.8877      2.00000
     58      -1.8877      2.00000
     59      -1.6285      2.00000
     60      -1.6285      2.00000
[...]
     74       0.3806      0.00000
     75       0.6052      0.00000
     76       0.6052      0.00000
     77       0.7838      0.00000
     78       0.7838      0.00000
     79       0.9102      0.00000
     80       0.9102      0.00000
     81       1.0040      0.00000
     82       1.0040      0.00000
     83       1.3445      0.00000
     84       1.3446      0.00000
     85       1.5228      0.00000
     86       1.5228      0.00000
     87       1.6122      0.00000
     88       1.6123      0.00000

 soft charge-density along one line, spin component           1
         0         1         2         3         4         5         6         7         8         9
 total charge-density along one line

------------------------ aborting loop because EDIFF is reached ----------------------------------------

         DFTD3 V3.0 Rev 1
 IVDW         = 11
 DF pbe
 parameters
 VDW_S6       =    1.0000
 VDW_S8       =    0.7220
 VDW_SR       =    1.2170
 rs18     =    1.0000
 alpha6   =   14.0000
 alpha8   =   16.0000
 k1-k3    =   16.0000    1.3333   -4.0000
 VDW_RADIUS   =   50.2022 A
 VDW_CNRADIUS =   21.1671 A
 Edisp (eV)   -2.28516

 E6    (eV) :    -0.8524
 E8    (eV) :    -1.4328
 % E8        : 62.70

  FORCE on cell =-STRESS in cart. coord.  units (eV):
  Direction    XX          YY          ZZ          XY          YZ          ZX
  Alpha Z   170.45751   170.45751   170.45751
  Ewald  -18881.23963 15285.85270 14746.36639    -0.00002     0.00000   145.11172
  Hartree-15832.94377 16916.49564 16492.40397     0.00000    -0.00000   112.79126
  E(xc)    -461.63413  -459.58270  -460.05658    -0.00000    -0.00000     0.14114
  Local   33300.84947-33637.61480-32666.30832     0.00001    -0.00000  -256.46224
  n-local   338.63949   338.24786   340.11823     0.06029    -0.20565    -1.12790
  augment  -169.09128  -169.52781  -169.54594    -0.00000    -0.00000     0.23373
  Kinetic  1524.54588  1544.57754  1536.41423    -0.06124    -0.80690    -0.63675
  Fock        0.00000     0.00000     0.00000     0.00000     0.00000     0.00000
  vdW        -1.10711    -2.53000    -2.50404     0.00000    -0.00000     0.03500
  Total     -11.52358   -13.62407   -12.65457     0.00000     0.00000     0.08595
  in kB      -9.77880   -11.56125   -10.73854     0.00000     0.00000     0.07294

 VOLUME and BASIS-vectors are now :
  energy-cutoff  :      500.00
  volume of cell :     1888.05
      direct lattice vectors                 reciprocal lattice vectors
    24.009468079  0.000000000  0.000000000     0.041650236  0.000000000  0.000000000
     0.000000000  6.777849674  0.000000000     0.000000000  0.147539419  0.000000000
     0.000000000  0.000000000 11.602143288     0.000000000  0.000000000  0.086190971

  length of vectors
    24.009468079  6.777849674 11.602143288     0.041650236  0.147539419  0.086190971

 FORCES acting on ions
    electron-ion (+dipol)            ewald-force                    non-local-force                 convergence-correction
   0.765E+03 0.102E-04 0.445E+02   -.759E+03 0.989E-05 -.437E+02   -.431E+01 -.365E-18 -.805E+00   -.130E-03 -.985E-09 0.200E-04
   -.765E+03 -.629E-04 -.445E+02   0.759E+03 -.128E-04 0.437E+02   0.431E+01 0.357E-18 0.805E+00   0.130E-03 0.110E-08 -.200E-04
   0.876E+02 -.613E-04 -.405E+02   -.874E+02 -.176E-04 0.391E+02   0.154E+00 -.511E-18 0.135E+01   0.106E-03 0.166E-08 -.911E-04
   -.876E+02 0.107E-04 0.405E+02   0.874E+02 0.126E-04 -.391E+02   -.154E+00 -.554E-18 -.135E+01   -.106E-03 -.152E-08 0.911E-04
   0.613E+03 -.611E-04 -.478E+02   -.611E+03 -.164E-04 0.481E+02   -.180E+01 -.171E-18 -.290E+00   -.958E-05 0.136E-08 -.115E-03
   -.613E+03 0.901E-05 0.478E+02   0.611E+03 0.142E-04 -.481E+02   0.180E+01 -.501E-18 0.290E+00   0.958E-05 -.125E-08 0.115E-03
   0.351E+03 0.112E-04 -.141E+02   -.350E+03 0.129E-04 0.133E+02   -.427E+00 0.304E-17 0.785E+00   0.529E-04 -.146E-08 0.476E-04
   -.351E+03 -.623E-04 0.141E+02   0.350E+03 -.130E-04 -.133E+02   0.427E+00 -.213E-17 -.785E+00   -.529E-04 0.146E-08 -.476E-04
   0.270E+03 0.365E+02 -.466E+02   -.270E+03 -.380E+02 0.475E+02   -.258E-01 0.150E+01 -.847E+00   0.383E-04 0.554E-04 -.514E-04
   -.270E+03 -.365E+02 0.466E+02   0.270E+03 0.380E+02 -.475E+02   0.258E-01 -.150E+01 0.847E+00   -.383E-04 -.554E-04 0.514E-04
   0.116E+03 -.335E+02 0.260E+01   -.115E+03 0.346E+02 -.152E+01   -.626E-01 -.110E+01 -.108E+01   -.249E-04 -.597E-04 -.101E-04
   -.116E+03 0.335E+02 -.260E+01   0.115E+03 -.346E+02 0.152E+01   0.626E-01 0.110E+01 0.108E+01   0.249E-04 0.597E-04 0.101E-04
   -.270E+03 0.365E+02 0.466E+02   0.270E+03 -.380E+02 -.475E+02   0.258E-01 0.150E+01 0.847E+00   -.383E-04 0.554E-04 0.514E-04
   0.270E+03 -.365E+02 -.466E+02   -.270E+03 0.380E+02 0.475E+02   -.258E-01 -.150E+01 -.847E+00   0.383E-04 -.554E-04 -.514E-04
   -.116E+03 -.335E+02 -.260E+01   0.115E+03 0.346E+02 0.152E+01   0.626E-01 -.110E+01 0.108E+01   0.249E-04 -.597E-04 0.101E-04
   0.116E+03 0.335E+02 0.260E+01   -.115E+03 -.346E+02 -.152E+01   -.626E-01 0.110E+01 -.108E+01   -.249E-04 0.597E-04 -.101E-04
   0.324E+03 -.416E-05 0.460E+02   -.326E+03 -.606E-05 -.467E+02   0.140E+01 0.123E-17 0.653E+00   0.307E-04 0.418E-09 0.396E-04
   -.324E+03 0.616E-05 -.460E+02   0.326E+03 0.629E-05 0.467E+02   -.140E+01 0.974E-18 -.653E+00   -.307E-04 -.447E-09 -.396E-04
   0.330E+02 0.855E-05 -.103E+02   -.312E+02 0.740E-05 0.965E+01   -.155E+01 -.103E-19 0.711E+00   -.348E-04 -.616E-09 -.169E-04
   -.330E+02 -.263E-05 0.103E+02   0.312E+02 -.707E-05 -.965E+01   0.155E+01 -.199E-18 -.711E+00   0.348E-04 0.576E-09 0.169E-04
   0.235E+03 0.432E-05 0.147E+02   -.235E+03 0.802E-05 -.158E+02   -.101E+00 -.244E-17 0.108E+01   0.254E-04 -.537E-09 0.227E-04
   -.235E+03 -.545E-05 -.147E+02   0.235E+03 -.808E-05 0.158E+02   0.101E+00 -.192E-17 -.108E+01   -.254E-04 0.500E-09 -.227E-04
   0.151E+03 -.611E-05 0.581E+02   -.150E+03 -.733E-05 -.599E+02   -.573E+00 -.788E-17 0.173E+01   -.849E-05 0.543E-09 0.969E-04
   -.151E+03 0.371E-05 -.581E+02   0.150E+03 0.721E-05 0.599E+02   0.573E+00 -.891E-17 -.173E+01   0.849E-05 -.553E-09 -.969E-04
   0.673E-04 -.213E-03 0.643E-04   0.199E-12 0.356E-13 0.000E+00   0.777E-15 -.192E-16 0.222E-15   -.320E-07 0.197E-09 -.358E-08

 POSITION                                       TOTAL-FORCE (eV/Angst)
      0.13670      1.69446      8.15579         0.816611     -0.000000      0.000271
      9.32277      5.08339      3.44636        -0.816611     -0.000000     -0.000271
      4.36803      5.08339      2.14531         0.353001      0.000000      0.000040
      5.09143      1.69446      9.45683        -0.353001     -0.000000     -0.000040
      1.43529      5.08339     10.61014         0.635431     -0.000000     -0.000429
      8.02418      1.69446      0.99200        -0.635431      0.000000      0.000429
      3.06944      1.69446      4.57008         0.453265      0.000000      0.000407
      6.39002      5.08339      7.03207        -0.453265      0.000000     -0.000407
      1.75027      0.49403      1.63580        -0.103116      0.000762      0.000570
      7.70920      6.28382      9.96634         0.103116     -0.000762     -0.000570
      2.75446      6.29486      7.65312         0.250674     -0.000036      0.000223
      6.70500      0.48299      3.94902        -0.250674      0.000036     -0.000223
      7.70920      3.88295      9.96634         0.103116      0.000762     -0.000570
      1.75027      2.89490      1.63580        -0.103116     -0.000762      0.000570
      6.70500      2.90594      3.94902        -0.250674     -0.000036     -0.000223
      2.75446      3.87191      7.65312         0.250674      0.000036      0.000223
      0.74693      5.08339      6.95969        -0.223504     -0.000000      0.000012
      8.71254      1.69446      4.64245         0.223504      0.000000     -0.000012
      3.75780      1.69446      0.91695         0.250678     -0.000000      0.000616
      5.70166      5.08339     10.68519        -0.250678      0.000000     -0.000616
      1.78112      1.69446     11.12707        -0.141628      0.000000     -0.000184
      7.67835      5.08339      0.47507         0.141628      0.000000      0.000184
      2.72362      5.08339      5.53928        -0.168784     -0.000000     -0.000083
      6.73585      1.69446      6.06286         0.168784      0.000000      0.000083
    total drift:                                0.000067     -0.000213      0.000064

  FREE ENERGIE OF THE ION-ELECTRON SYSTEM (eV)
  free  energy   TOTEN  =      -106.96742478 eV

  energy  without entropy=     -106.96742478  energy(sigma->0) =     -106.96742478

 writing wavefunctions
 BZINTS: Fermi energy: -0.487651;144.000000 electrons
         Band energy:***********;  BLOECHL correction:  0.000000