 vasp.5.4.4.18Apr17-6-g9f103f2a35 (build Nov 21 2017 15:30:27) complex

 executed on             LinuxIFC date 2020.09.13  23:54:07

 INCAR:
 POTCAR:   PAW_PBE Ba_sv 06Sep2000
 POTCAR:   PAW_PBE Si 05Jan2001

 POTCAR:   PAW_PBE Ba_sv 06Sep2000
   VRHFIN =Ba: 5s5p6s

   TITEL  = PAW_PBE Ba_sv 06Sep2000
   POMASS =  137.327; ZVAL   =   10.000    mass and valenz
   ENMAX  =  187.210; ENMIN  =  140.408 eV
   QCUT   =   -3.709; QGAM   =    7.419    optimization parameters

   Description
     l     E      TYP  RCUT    TYP  RCUT
     0   .000     23  2.800
     0   .000     23  2.800
     1   .000     23  2.700
     1  2.000     23  2.700
     2   .000     23  2.700
     2   .000     23  2.700

 POTCAR:   PAW_PBE Si 05Jan2001
   VRHFIN =Si: s2p2

   TITEL  = PAW_PBE Si 05Jan2001
   POMASS =   28.085; ZVAL   =    4.000    mass and valenz
   ENMAX  =  245.345; ENMIN  =  184.009 eV
   QCUT   =   -4.246; QGAM   =    8.493    optimization parameters

   Description
     l     E      TYP  RCUT    TYP  RCUT
     0   .000     23  1.900
     0   .000     23  1.900
     1   .000     23  1.900
     1   .000     23  1.900
     2   .000      7  1.900

 Optimization of the real space projectors (new method)

 maximal supplied QI-value         = 13.42
 optimisation between [QCUT,QGAM] = [ 11.40, 22.81] = [ 36.42,145.68] Ry
 Optimized for a Real-space Cutoff    1.56 Angstroem

   l    n(q)    QCUT    max X(q) W(low)/X(q) W(high)/X(q)  e(spline)
   0     11    11.404     7.198    0.14E-04    0.26E-04    0.99E-07
   0     11    11.404    15.603    0.29E-04    0.72E-04    0.44E-06
   1     10    11.404     3.746    0.20E-04    0.24E-04    0.43E-07
   1     10    11.404     4.362    0.22E-03    0.97E-04    0.22E-06
   2     10    11.404     5.782    0.83E-04    0.62E-05    0.27E-06
   2     10    11.404    65.505    0.42E-03    0.31E-04    0.12E-05
 Optimization of the real space projectors (new method)

 maximal supplied QI-value         = 19.84
 optimisation between [QCUT,QGAM] = [ 11.31, 22.82] = [ 35.82,145.81] Ry
 Optimized for a Real-space Cutoff    1.16 Angstroem

   l    n(q)    QCUT    max X(q) W(low)/X(q) W(high)/X(q)  e(spline)
   0      8    11.310     8.708    0.14E-04    0.11E-04    0.43E-08
   0      8    11.310   106.241    0.27E-03    0.30E-03    0.38E-07
   1      7    11.310     5.901    0.82E-05    0.48E-04    0.19E-07
   1      7    11.310    73.241    0.27E-03    0.27E-03    0.74E-07
 PAW_PBE Ba_sv 06Sep2000                :
 PAW_PBE Si 05Jan2001                   :

 POSCAR: ba8 si16
  positions in direct lattice
  velocities in cartesian coordinates
 exchange correlation table for  LEXCH =        8
   RHO(1)=    0.500       N(1)  =     2000
   RHO(2)=  100.500       N(2)  =     4000

 ion  position               nearest neighbor table
   1  0.006  0.250  0.706-  21 3.41  16 3.45  11 3.45  17 3.66  17 3.66   5 4.39   5 4.39   7 4.63

   2  0.374  0.750  0.294-  22 3.41  12 3.45  15 3.45  18 3.66  18 3.66   6 4.39   6 4.39   8 4.63

   3  0.182  0.750  0.187-  20 3.30  22 3.44   9 3.45  14 3.45  12 3.45  15 3.45  19 3.64  19 3.64
                            23 3.74   5 4.28   7 4.37   7 4.37
   4  0.197  0.250  0.813-  19 3.30  21 3.44  13 3.45  10 3.45  16 3.45  11 3.45  20 3.64  20 3.64
                            24 3.74   6 4.28   8 4.37   8 4.37
   5  0.060  0.750  0.919-   9 3.43  14 3.43  21 3.45  21 3.45  11 3.50  16 3.50  17 3.76  20 3.92
                             3 4.28   1 4.39   1 4.39
   6  0.320  0.250  0.081-  13 3.43  10 3.43  22 3.45  22 3.45  15 3.50  12 3.50  18 3.76  19 3.92
                             4 4.28   2 4.39   2 4.39
   7  0.128  0.250  0.397-  14 3.43   9 3.43  23 3.53  23 3.53  15 3.56  12 3.56  24 3.62  19 3.69
                            16 3.76  11 3.76   3 4.37   3 4.37   1 4.63
   8  0.252  0.750  0.603-  10 3.43  13 3.43  24 3.53  24 3.53  11 3.56  16 3.56  23 3.62  20 3.69
                            12 3.76  15 3.76   4 4.37   4 4.37   2 4.63
   9  0.073  0.073  0.145-  14 2.40  21 2.43  19 2.44   7 3.43   5 3.43   3 3.45
  10  0.307  0.927  0.855-  13 2.40  22 2.43  20 2.44   8 3.43   6 3.43   4 3.45
  11  0.115  0.928  0.659-  16 2.41  23 2.43  17 2.44   4 3.45   1 3.45   5 3.50   8 3.56   7 3.76

[...]

  21  0.074  0.250  0.963-  14 2.43   9 2.43  19 2.43   1 3.41   4 3.44   5 3.45   5 3.45
  22  0.305  0.750  0.037-  10 2.43  13 2.43  20 2.43   2 3.41   3 3.44   6 3.45   6 3.45
  23  0.113  0.750  0.477-  11 2.43  16 2.43  17 2.44   7 3.53   7 3.53   8 3.62   3 3.74
  24  0.266  0.250  0.523-  15 2.43  12 2.43  18 2.44   8 3.53   8 3.53   7 3.62   4 3.74

  LATTYP: Found a simple orthorhombic cell.
 ALAT       =     6.7778496742
 B/A-ratio  =     1.7117734747
 C/A-ratio  =     3.5423429602

  Lattice vectors:

 A1 = (   0.0000000000,   6.7778496742,   0.0000000000)
 A2 = (   0.0000000000,   0.0000000000, -11.6021432877)
 A3 = ( -24.0094680786,   0.0000000000,   0.0000000000)

Analysis of symmetry for initial positions (statically):
 Subroutine PRICEL returns:
 Original cell was already a primitive cell.

 Routine SETGRP: Setting up the symmetry group for a
 simple orthorhombic supercell.

 Subroutine GETGRP returns: Found  4 space group operations
 (whereof  1 operations were pure point group operations)
 out of a pool of  8 trial point group operations.

The static configuration has the point symmetry C_1 .
 The point group associated with its full space group is C_2h.

Analysis of symmetry for dynamics (positions and initial velocities):
 Subroutine PRICEL returns:
 Original cell was already a primitive cell.

[...]

The dynamic configuration has the point symmetry C_1 .
 The point group associated with its full space group is C_2h.

Analysis of constrained symmetry for selective dynamics:
 Subroutine PRICEL returns:
 Original cell was already a primitive cell.

 Routine SETGRP: Setting up the symmetry group for a
 simple orthorhombic supercell.

 Subroutine GETGRP returns: Found  4 space group operations
 (whereof  1 operations were pure point group operations)
 out of a pool of  8 trial point group operations.

The constrained configuration has the point symmetry C_1 .
 The point group associated with its full space group is C_2h.

 Subroutine INISYM returns: Found  4 space group operations
 (whereof  1 operations are pure point group operations),
 and found     1 'primitive' translations

 KPOINTS: k-density: 8.0

Automatic generation of k-mesh.
Space group operators:
 irot       det(A)        alpha          n_x          n_y          n_z        tau_x        tau_y        tau_z
    1     1.000000     0.000000     1.000000     0.000000     0.000000     0.000000     0.000000     0.000000
    2    -1.000000     0.000000     1.000000     0.000000     0.000000    -0.620589     0.000000     0.000000
    3     1.000000   180.000000     0.000000     1.000000     0.000000    -0.620589     0.500000     0.000000
    4    -1.000000   180.000000     0.000000     1.000000     0.000000     0.000000     0.500000     0.000000

 Subroutine IBZKPT returns following result:

 Found     15 irreducible k-points:

 Following reciprocal coordinates:
            Coordinates               Weight
  0.000000  0.000000  0.000000      1.000000
  0.000000  0.125000  0.000000      2.000000
  0.000000  0.250000  0.000000      2.000000
  0.000000  0.375000  0.000000      2.000000
  0.000000  0.500000  0.000000      1.000000
  0.000000  0.000000  0.200000      2.000000
  0.000000  0.125000  0.200000      4.000000
  0.000000  0.250000  0.200000      4.000000
  0.000000  0.375000  0.200000      4.000000
  0.000000  0.500000  0.200000      2.000000
  0.000000  0.000000  0.400000      2.000000
  0.000000  0.125000  0.400000      4.000000
  0.000000  0.250000  0.400000      4.000000
  0.000000  0.375000  0.400000      4.000000
  0.000000  0.500000  0.400000      2.000000

 Following cartesian coordinates:
            Coordinates               Weight
  0.000000  0.000000  0.000000      1.000000
  0.000000  0.018442  0.000000      2.000000
  0.000000  0.036885  0.000000      2.000000
  0.000000  0.055327  0.000000      2.000000
  0.000000  0.073770  0.000000      1.000000
  0.000000  0.000000  0.017238      2.000000
  0.000000  0.018442  0.017238      4.000000
  0.000000  0.036885  0.017238      4.000000
  0.000000  0.055327  0.017238      4.000000
  0.000000  0.073770  0.017238      2.000000
  0.000000  0.000000  0.034476      2.000000
  0.000000  0.018442  0.034476      4.000000
  0.000000  0.036885  0.034476      4.000000
  0.000000  0.055327  0.034476      4.000000
  0.000000  0.073770  0.034476      2.000000

 TETIRR: Found    108 inequivalent tetrahedra from      240

 SYSTEM =  unknown system
 POSCAR =  ba8 si16

 Startparameter for this run:
   NWRITE =      2    write-flag & timer
   PREC   = normal    normal or accurate (medium, high low for compatibility)
   ISTART =      0    job   : 0-new  1-cont  2-samecut
   ICHARG =      2    charge: 1-file 2-atom 10-const
   ISPIN  =      1    spin polarized calculation?
   LNONCOLLINEAR =      F non collinear calculations
   LSORBIT =      F    spin-orbit coupling
   INIWAV =      1    electr: 0-lowe 1-rand  2-diag
   LASPH  =      F    aspherical Exc in radial PAW
   METAGGA=      F    non-selfconsistent MetaGGA calc.

 Electronic Relaxation 1
   ENCUT  =  500.0 eV  36.75 Ry    6.06 a.u.  43.77 12.36 21.15*2*pi/ulx,y,z
   ENINI  =  500.0     initial cutoff
   ENAUG  =  351.2 eV  augmentation charge cutoff
   NELM   =    100;   NELMIN=  2; NELMDL= -5     # of ELM steps
   EDIFF  = 0.1E-05   stopping-criterion for ELM
   LREAL  =      T    real-space projection
   NLSPLINE    = F    spline interpolate recip. space projectors
   LCOMPAT=      F    compatible to vasp.4.4
   GGA_COMPAT  = T    GGA compatible to vasp.4.4-vasp.4.6
   LMAXPAW     = -100 max onsite density
   LMAXMIX     =    2 max onsite mixed and CHGCAR
   VOSKOWN=      0    Vosko Wilk Nusair interpolation
   ROPT   =   -0.00050  -0.00050
 Ionic relaxation
   EDIFFG = -.1E-02   stopping-criterion for IOM
   NSW    =      0    number of steps for IOM
   NBLOCK =      1;   KBLOCK =      1    inner block; outer block
   IBRION =     -1    ionic relax: 0-MD 1-quasi-New 2-CG
   NFREE  =      0    steps in history (QN), initial steepest desc. (CG)
   ISIF   =      2    stress and relaxation
   IWAVPR =     10    prediction:  0-non 1-charg 2-wave 3-comb
   ISYM   =      2    0-nonsym 1-usesym 2-fastsym
   LCORR  =      T    Harris-Foulkes like correction to forces

   POTIM  = 0.3000    time-step for ionic-motion
   TEIN   =    0.0    initial temperature
   TEBEG  =    0.0;   TEEND  =   0.0 temperature during run
   SMASS  =  -3.00    Nose mass-parameter (am)
   estimated Nose-frequenzy (Omega)   =  0.10E-29 period in steps =****** mass=  -0.132E-25a.u.
   SCALEE = 1.0000    scale energy and forces
   NPACO  =    256;   APACO  = 16.0  distance and # of slots for P.C.
   PSTRESS=    0.0 pullay stress

  Mass of Ions in am
   POMASS = 137.33 28.09
  Ionic Valenz
   ZVAL   =  10.00  4.00
  Atomic Wigner-Seitz radii
  virtual crystal weights
   VCA    =   1.00  1.00
   NELECT =     144.0000    total number of electrons
   NUPDOWN=      -1.0000    fix difference up-down

[...]
  -exchange      EXHF   =         0.00000000
  -V(xc)+E(xc)   XCENC  =        42.85200809
  PAW double counting   =      3692.15173346    -3390.49189382
  entropy T*S    EENTRO =         0.00000000
  eigenvalues    EBANDS =      -463.32059620
  atomic energy  EATOM  =      7250.85976021
  Solvation  Ediel_sol  =         0.00000000
  free energy    TOTEN  =      1193.28442860 eV

  energy without entropy =     1193.28442860  energy(sigma->0) =     1193.28442860

[...]

 eigenvalue-minimisations  :  3800
 total energy-change (2. order) :-0.1130956E+04  (-0.1101598E+04)
 number of electron     144.0000000 magnetization
 augmentation part      144.0000000 magnetization

[...]

 Broyden mixing:
  rms(total) = 0.90990E+00    rms(broyden)= 0.90989E+00
  rms(prec ) = 0.11955E+01
  weight for this iteration     100.00

[...]

 eigenvalues of (default mixing * dielectric matrix)
  average eigenvalue GAMMA=   1.5352
  1.5352

[...]

 eigenvalue-minimisations  :  3096
 total energy-change (2. order) : 0.9007999E-02  (-0.6598594E-02)
 number of electron     144.0000003 magnetization
 augmentation part      -17.6711723 magnetization

[...]

 Broyden mixing:
  rms(total) = 0.61150E-05    rms(broyden)= 0.61150E-05
  rms(prec ) = 0.89468E-05
  weight for this iteration     100.00

 eigenvalues of (default mixing * dielectric matrix)
  average eigenvalue GAMMA=   2.3368
  9.1321  7.0190  3.9442  3.9023  2.8984  2.5203  1.8924  1.8924  1.5016  1.5016
  0.9154  0.9154  1.2244  1.2244  1.1499  1.1499  1.0674  0.9703  0.9703  0.9449

[...]

--------------------------------------- Iteration      1(  26)  ---------------------------------------

 BZINTS: Fermi energy: -0.391837;144.000000 electrons
         Band energy:***********;  BLOECHL correction:  0.000000

 eigenvalue-minimisations  :  1944
 total energy-change (2. order) :-0.2099641E-06  (-0.5161827E-08)
 number of electron     144.0000003 magnetization
 augmentation part      -17.6693998 magnetization

 Free energy of the ion-electron system (eV)
  alpha Z        PSCENC =       170.45750602
  Ewald energy   TEWEN  =     12323.67135226
  -Hartree energ DENC   =    -18755.00413672
  -exchange      EXHF   =         0.00000000
  -V(xc)+E(xc)   XCENC  =        50.04320154
  PAW double counting   =      3832.14430950    -3545.95507906
  entropy T*S    EENTRO =         0.00000000
  eigenvalues    EBANDS =     -1431.45351211
  atomic energy  EATOM  =      7250.85976021
  Solvation  Ediel_sol  =         0.00000000
  free energy    TOTEN  =      -105.23659836 eV

  energy without entropy =     -105.23659836  energy(sigma->0) =     -105.23659836

 average (electrostatic) potential at core
  the test charge radii are     1.2192  0.9892
  (the norm of the test charge is              1.0000)
       1 -41.9161       2 -41.9161       3 -40.0691       4 -40.0691       5 -40.8357
       6 -40.8357       7 -40.7205       8 -40.7205       9 -88.7630      10 -88.7630
      11 -89.2037      12 -89.2037      13 -88.7630      14 -88.7630      15 -89.2037
      16 -89.2037      17 -89.2749      18 -89.2749      19 -88.7942      20 -88.7942
      21 -88.9103      22 -88.9103      23 -89.1986      24 -89.1986

 E-fermi :  -0.3918     XC(G=0):  -3.9656     alpha+bet : -3.8451

 k-point     1 :       0.0000    0.0000    0.0000
  band No.  band energies     occupation
      1     -29.5291      2.00000
      2     -29.5291      2.00000
      3     -28.4784      2.00000
      4     -28.4783      2.00000
      5     -28.3546      2.00000
      6     -28.3519      2.00000
      7     -27.7481      2.00000
      8     -27.7472      2.00000
      9     -14.8705      2.00000
     10     -14.8698      2.00000
     11     -14.7977      2.00000
     12     -14.7975      2.00000
     13     -14.7191      2.00000
     14     -14.7191      2.00000
     15     -13.9061      2.00000
     16     -13.9035      2.00000
     17     -13.7765      2.00000
     18     -13.7724      2.00000
     19     -13.7341      2.00000
     20     -13.7294      2.00000
     21     -13.7250      2.00000
     22     -13.7160      2.00000
     23     -13.6829      2.00000
     24     -13.6568      2.00000
     25     -13.6456      2.00000
     26     -13.6128      2.00000
     27     -13.1558      2.00000
     28     -13.1291      2.00000
     29     -13.0985      2.00000
     30     -13.0916      2.00000
     31     -13.0684      2.00000
     32     -13.0585      2.00000
     33     -11.0942      2.00000
     34     -11.0283      2.00000
     35     -10.6848      2.00000
     36     -10.6549      2.00000
     37      -6.3633      2.00000
     38      -6.3543      2.00000
     39      -6.1575      2.00000
     40      -6.1540      2.00000
     41      -6.1499      2.00000
     42      -6.1320      2.00000
     43      -5.9419      2.00000
     44      -5.9192      2.00000
     45      -5.7918      2.00000
     46      -5.6215      2.00000
     47      -5.6082      2.00000
     48      -5.6054      2.00000
     49      -3.5193      2.00000
     50      -3.0305      2.00000
     51      -2.5418      2.00000
     52      -2.5346      2.00000
     53      -2.4462      2.00000
     54      -2.1272      2.00000
     55      -1.9219      2.00000
     56      -1.8770      2.00000
     57      -1.7937      2.00000
     58      -1.7684      2.00000
     59      -1.7390      2.00000
     60      -1.6533      2.00000
[...]
     74       0.5201      0.00000
     75       0.6014      0.00000
     76       0.7644      0.00000
     77       0.7867      0.00000
     78       0.8678      0.00000
     79       1.0511      0.00000
     80       1.2669      0.00000
     81       1.2996      0.00000
     82       1.3343      0.00000
     83       1.4247      0.00000
     84       1.4358      0.00000
     85       1.4885      0.00000
     86       1.5534      0.00000
     87       1.6419      0.00000
     88       1.7180      0.00000

[...]

 k-point    15 :       0.0000    0.5000    0.4000
  band No.  band energies     occupation
      1     -29.5290      2.00000
      2     -29.5290      2.00000
      3     -28.4784      2.00000
      4     -28.4784      2.00000
      5     -28.3530      2.00000
      6     -28.3530      2.00000
      7     -27.7478      2.00000
      8     -27.7478      2.00000
      9     -14.8670      2.00000
     10     -14.8670      2.00000
     11     -14.8023      2.00000
     12     -14.8023      2.00000
     13     -14.7325      2.00000
     14     -14.7325      2.00000
     15     -13.8993      2.00000
     16     -13.8993      2.00000
     17     -13.7776      2.00000
     18     -13.7776      2.00000
     19     -13.7593      2.00000
     20     -13.7593      2.00000
     21     -13.7237      2.00000
     22     -13.7237      2.00000
     23     -13.6944      2.00000
     24     -13.6944      2.00000
     25     -13.6190      2.00000
     26     -13.6190      2.00000
     27     -13.1381      2.00000
     28     -13.1381      2.00000
     29     -13.0954      2.00000
     30     -13.0954      2.00000
     31     -13.0635      2.00000
     32     -13.0635      2.00000
     33     -11.0122      2.00000
     34     -11.0122      2.00000
     35     -10.6138      2.00000
     36     -10.6137      2.00000
     37      -6.4311      2.00000
     38      -6.4311      2.00000
     39      -6.1381      2.00000
     40      -6.1380      2.00000
     41      -6.0937      2.00000
     42      -6.0937      2.00000
     43      -5.8014      2.00000
     44      -5.8013      2.00000
     45      -5.7651      2.00000
     46      -5.7651      2.00000
     47      -5.6354      2.00000
     48      -5.6354      2.00000
     49      -2.6913      2.00000
     50      -2.6913      2.00000
     51      -2.5117      2.00000
     52      -2.5117      2.00000
     53      -2.1537      2.00000
     54      -2.1537      2.00000
     55      -2.0955      2.00000
     56      -2.0955      2.00000
     57      -1.8922      2.00000
     58      -1.8922      2.00000
     59      -1.6822      2.00000
     60      -1.6822      2.00000
[...]
     74       0.3318      0.00000
     75       0.5692      0.00000
     76       0.5692      0.00000
     77       0.7427      0.00000
     78       0.7427      0.00000
     79       0.9365      0.00000
     80       0.9365      0.00000
     81       0.9999      0.00000
     82       0.9999      0.00000
     83       1.3537      0.00000
     84       1.3537      0.00000
     85       1.5365      0.00000
     86       1.5365      0.00000
     87       1.6355      0.00000
     88       1.6355      0.00000

 soft charge-density along one line, spin component           1
         0         1         2         3         4         5         6         7         8         9
 total charge-density along one line

------------------------ aborting loop because EDIFF is reached ----------------------------------------

         DFTD3 V3.0 Rev 1
 IVDW         = 11
 DF pbe
 parameters
 VDW_S6       =    1.0000
 VDW_S8       =    0.7220
 VDW_SR       =    1.2170
 rs18     =    1.0000
 alpha6   =   14.0000
 alpha8   =   16.0000
 k1-k3    =   16.0000    1.3333   -4.0000
 VDW_RADIUS   =   50.2022 A
 VDW_CNRADIUS =   21.1671 A
 Edisp (eV)   -2.34466

 E6    (eV) :    -0.8770
 E8    (eV) :    -1.4677
 % E8        : 62.60

  FORCE on cell =-STRESS in cart. coord.  units (eV):
  Direction    XX          YY          ZZ          XY          YZ          ZX
  Alpha Z   170.45751   170.45751   170.45751
  Ewald  -20096.00104 16476.56063 15943.09805    -0.00002     0.00000   146.20440
  Hartree-17024.61802 18099.82598 17679.79319     0.00000    -0.00000   110.26731
  E(xc)    -462.33826  -460.62876  -461.01836    -0.00000    -0.00000     0.21421
  Local   35704.32202-36011.49770-35049.96430     0.00001    -0.00000  -254.16508
  n-local   339.11518   339.30832   339.96106     0.05908    -0.19514    -1.73288
  augment  -169.35666  -169.66312  -169.54648    -0.00000    -0.00000     0.34210
  Kinetic  1532.18101  1547.36155  1539.84693    -0.02782    -0.81178    -1.08243
  Fock        0.00000     0.00000     0.00000     0.00000     0.00000     0.00000
  vdW        -1.35185    -2.70568    -2.60843     0.00000    -0.00000     0.02279
  Total      -7.59012   -10.98128    -9.98083     0.00000     0.00000     0.07040
  in kB      -6.44090    -9.31860    -8.46963     0.00000     0.00000     0.05974

 VOLUME and BASIS-vectors are now :
  energy-cutoff  :      500.00
  volume of cell :     1888.05
      direct lattice vectors                 reciprocal lattice vectors
    24.009468079  0.000000000  0.000000000     0.041650236  0.000000000  0.000000000
     0.000000000  6.777849674  0.000000000     0.000000000  0.147539419  0.000000000
     0.000000000  0.000000000 11.602143288     0.000000000  0.000000000  0.086190971

  length of vectors
    24.009468079  6.777849674 11.602143288     0.041650236  0.147539419  0.086190971

 FORCES acting on ions
    electron-ion (+dipol)            ewald-force                    non-local-force                 convergence-correction
   0.792E+03 0.102E-04 0.444E+02   -.787E+03 0.981E-05 -.435E+02   -.427E+01 0.540E-18 -.827E+00   0.562E-04 -.681E-09 0.746E-05
   -.792E+03 -.632E-04 -.444E+02   0.787E+03 -.127E-04 0.435E+02   0.427E+01 0.555E-18 0.827E+00   -.562E-04 0.723E-09 -.746E-05
   0.773E+02 -.598E-04 -.359E+02   -.771E+02 -.192E-04 0.346E+02   -.324E+00 -.295E-18 0.125E+01   0.678E-04 0.111E-08 -.483E-04
   -.773E+02 0.120E-04 0.359E+02   0.771E+02 0.133E-04 -.346E+02   0.324E+00 -.265E-18 -.125E+01   -.678E-04 -.104E-08 0.483E-04
   0.638E+03 -.610E-04 -.493E+02   -.635E+03 -.169E-04 0.498E+02   -.204E+01 -.236E-17 -.538E+00   0.128E-03 0.901E-09 -.524E-04
   -.638E+03 0.904E-05 0.493E+02   0.635E+03 0.147E-04 -.498E+02   0.204E+01 -.258E-17 0.538E+00   -.128E-03 -.861E-09 0.524E-04
   0.371E+03 0.124E-04 -.896E+01   -.370E+03 0.135E-04 0.813E+01   -.119E+01 -.227E-17 0.853E+00   0.110E-03 -.101E-08 0.895E-05
   -.371E+03 -.614E-04 0.896E+01   0.370E+03 -.135E-04 -.813E+01   0.119E+01 0.197E-17 -.853E+00   -.110E-03 0.996E-09 -.894E-05
   0.277E+03 0.368E+02 -.469E+02   -.277E+03 -.383E+02 0.478E+02   -.969E-01 0.149E+01 -.865E+00   0.811E-04 0.438E-04 -.404E-04
   -.277E+03 -.368E+02 0.469E+02   0.277E+03 0.383E+02 -.478E+02   0.969E-01 -.149E+01 0.865E+00   -.811E-04 -.438E-04 0.404E-04
   0.127E+03 -.324E+02 0.303E+01   -.126E+03 0.335E+02 -.206E+01   -.608E+00 -.111E+01 -.976E+00   0.280E-04 -.275E-04 -.433E-06
   -.127E+03 0.324E+02 -.303E+01   0.126E+03 -.335E+02 0.206E+01   0.608E+00 0.111E+01 0.976E+00   -.280E-04 0.275E-04 0.435E-06
   -.277E+03 0.368E+02 0.469E+02   0.277E+03 -.383E+02 -.478E+02   0.969E-01 0.149E+01 0.865E+00   -.811E-04 0.438E-04 0.404E-04
   0.277E+03 -.368E+02 -.469E+02   -.277E+03 0.383E+02 0.478E+02   -.969E-01 -.149E+01 -.865E+00   0.811E-04 -.438E-04 -.404E-04
   -.127E+03 -.324E+02 -.303E+01   0.126E+03 0.335E+02 0.206E+01   0.608E+00 -.111E+01 0.976E+00   -.280E-04 -.275E-04 0.435E-06
   0.127E+03 0.324E+02 0.303E+01   -.126E+03 -.335E+02 -.206E+01   -.608E+00 0.111E+01 -.976E+00   0.280E-04 0.275E-04 -.433E-06
   0.335E+03 -.425E-05 0.458E+02   -.337E+03 -.605E-05 -.464E+02   0.136E+01 0.104E-18 0.663E+00   0.624E-04 0.297E-09 0.229E-04
   -.335E+03 0.614E-05 -.458E+02   0.337E+03 0.630E-05 0.464E+02   -.136E+01 -.380E-19 -.663E+00   -.624E-04 -.302E-09 -.229E-04
   0.318E+02 0.102E-04 -.111E+02   -.302E+02 0.772E-05 0.103E+02   -.137E+01 -.272E-18 0.793E+00   -.149E-04 -.415E-09 -.157E-04
   -.318E+02 -.106E-05 0.111E+02   0.302E+02 -.736E-05 -.103E+02   0.137E+01 -.264E-18 -.793E+00   0.149E-04 0.390E-09 0.157E-04
   0.247E+03 0.444E-05 0.101E+02   -.246E+03 0.814E-05 -.112E+02   -.702E+00 0.735E-18 0.114E+01   0.766E-04 -.362E-09 0.287E-04
   -.247E+03 -.558E-05 -.101E+02   0.246E+03 -.818E-05 0.112E+02   0.702E+00 -.524E-18 -.114E+01   -.766E-04 0.344E-09 -.287E-04
   0.161E+03 -.628E-05 0.614E+02   -.160E+03 -.764E-05 -.630E+02   -.832E+00 0.978E-17 0.165E+01   0.361E-04 0.378E-09 0.463E-04
   -.161E+03 0.374E-05 -.614E+02   0.160E+03 0.745E-05 0.630E+02   0.832E+00 0.992E-17 -.165E+01   -.361E-04 -.378E-09 -.463E-04
   0.637E-04 -.206E-03 0.629E-04   -.853E-13 0.446E-14 -.213E-13   0.000E+00 -.203E-15 0.222E-15   -.206E-07 0.676E-10 -.314E-08

 POSITION                                       TOTAL-FORCE (eV/Angst)
      0.13670      1.69446      8.19106         0.787118      0.000000     -0.000204
      8.97277      5.08339      3.41108        -0.787118      0.000000      0.000204
      4.36803      5.08339      2.17174        -0.095812      0.000000      0.000179
      4.74143      1.69446      9.43040         0.095812     -0.000000     -0.000179
      1.43529      5.08339     10.65809         0.705322      0.000000      0.000599
      7.67418      1.69446      0.94405        -0.705322     -0.000000     -0.000599
      3.06944      1.69446      4.60491         0.305391      0.000000      0.000656
      6.04002      5.08339      6.99723        -0.305391      0.000000     -0.000656
      1.75027      0.49399      1.67937        -0.129064     -0.000176      0.000009
      7.35920      6.28385      9.92277         0.129064      0.000176     -0.000009
      2.75446      6.28912      7.64543         0.042318     -0.000391     -0.000474
      6.35500      0.48873      3.95672        -0.042318      0.000391      0.000474
      7.35920      3.88292      9.92277         0.129064     -0.000176     -0.000009
      1.75027      2.89493      1.67937        -0.129064      0.000176      0.000009
      6.35500      2.90019      3.95672        -0.042318     -0.000391      0.000474
      2.75446      3.87766      7.64543         0.042318      0.000391     -0.000474
      0.74693      5.08339      6.95839        -0.200852      0.000000     -0.000423
      8.36254      1.69446      4.64375         0.200852      0.000000      0.000423
      3.75780      1.69446      0.97903         0.173210     -0.000000      0.000281
      5.35166      5.08339     10.62311        -0.173210      0.000000     -0.000281
      1.78112      1.69446     11.17456        -0.247386      0.000000     -0.000715
      7.32835      5.08339      0.42759         0.247386      0.000000      0.000715
      2.72362      5.08339      5.53598        -0.273791     -0.000000      0.000119
      6.38585      1.69446      6.06616         0.273791     -0.000000     -0.000119
    total drift:                                0.000064     -0.000206      0.000063

  FREE ENERGIE OF THE ION-ELECTRON SYSTEM (eV)
  free  energy   TOTEN  =      -107.58126311 eV

  energy  without entropy=     -107.58126311  energy(sigma->0) =     -107.58126311

 writing wavefunctions
 BZINTS: Fermi energy: -0.391837;144.000000 electrons
         Band energy:***********;  BLOECHL correction:  0.000000