 vasp.5.4.4.18Apr17-6-g9f103f2a35 (build Nov 21 2017 15:30:27) complex

 executed on             LinuxIFC date 2020.09.14  10:54:11

 INCAR:
 POTCAR:   PAW_PBE Ba_sv 06Sep2000
 POTCAR:   PAW_PBE Si 05Jan2001

 POTCAR:   PAW_PBE Ba_sv 06Sep2000
   VRHFIN =Ba: 5s5p6s

   TITEL  = PAW_PBE Ba_sv 06Sep2000
   POMASS =  137.327; ZVAL   =   10.000    mass and valenz
   ENMAX  =  187.210; ENMIN  =  140.408 eV
   QCUT   =   -3.709; QGAM   =    7.419    optimization parameters

   Description
     l     E      TYP  RCUT    TYP  RCUT
     0   .000     23  2.800
     0   .000     23  2.800
     1   .000     23  2.700
     1  2.000     23  2.700
     2   .000     23  2.700
     2   .000     23  2.700

 POTCAR:   PAW_PBE Si 05Jan2001
   VRHFIN =Si: s2p2

   TITEL  = PAW_PBE Si 05Jan2001
   POMASS =   28.085; ZVAL   =    4.000    mass and valenz
   ENMAX  =  245.345; ENMIN  =  184.009 eV
   QCUT   =   -4.246; QGAM   =    8.493    optimization parameters

   Description
     l     E      TYP  RCUT    TYP  RCUT
     0   .000     23  1.900
     0   .000     23  1.900
     1   .000     23  1.900
     1   .000     23  1.900
     2   .000      7  1.900

 Optimization of the real space projectors (new method)

 maximal supplied QI-value         = 13.42
 optimisation between [QCUT,QGAM] = [ 11.40, 22.81] = [ 36.42,145.68] Ry
 Optimized for a Real-space Cutoff    1.56 Angstroem

   l    n(q)    QCUT    max X(q) W(low)/X(q) W(high)/X(q)  e(spline)
   0     11    11.404     7.198    0.14E-04    0.26E-04    0.99E-07
   0     11    11.404    15.603    0.29E-04    0.72E-04    0.44E-06
   1     10    11.404     3.746    0.20E-04    0.24E-04    0.43E-07
   1     10    11.404     4.362    0.22E-03    0.97E-04    0.22E-06
   2     10    11.404     5.782    0.83E-04    0.62E-05    0.27E-06
   2     10    11.404    65.505    0.42E-03    0.31E-04    0.12E-05
 Optimization of the real space projectors (new method)

 maximal supplied QI-value         = 19.84
 optimisation between [QCUT,QGAM] = [ 11.31, 22.82] = [ 35.82,145.81] Ry
 Optimized for a Real-space Cutoff    1.16 Angstroem

   l    n(q)    QCUT    max X(q) W(low)/X(q) W(high)/X(q)  e(spline)
   0      8    11.310     8.708    0.14E-04    0.11E-04    0.43E-08
   0      8    11.310   106.241    0.27E-03    0.30E-03    0.38E-07
   1      7    11.310     5.901    0.82E-05    0.48E-04    0.19E-07
   1      7    11.310    73.241    0.27E-03    0.27E-03    0.74E-07
 PAW_PBE Ba_sv 06Sep2000                :
 PAW_PBE Si 05Jan2001                   :

 POSCAR: ba8 si16
  positions in direct lattice
  velocities in cartesian coordinates
 exchange correlation table for  LEXCH =        8
   RHO(1)=    0.500       N(1)  =     2000
   RHO(2)=  100.500       N(2)  =     4000

 ion  position               nearest neighbor table
   1  0.006  0.250  0.704-  21 3.40  16 3.45  11 3.45  17 3.65  17 3.65   5 4.38   5 4.38   7 4.63

   2  0.384  0.750  0.296-  22 3.40  12 3.45  15 3.45  18 3.65  18 3.65   6 4.38   6 4.38   8 4.63

   3  0.182  0.750  0.186-  20 3.33   9 3.45  14 3.45  12 3.60  15 3.60  22 3.63  19 3.65  19 3.65
                            23 3.76   5 4.29   7 4.37   7 4.37
   4  0.208  0.250  0.814-  19 3.33  13 3.45  10 3.45  16 3.60  11 3.60  21 3.63  20 3.65  20 3.65
                            24 3.76   6 4.29   8 4.37   8 4.37
   5  0.060  0.750  0.916-   9 3.43  14 3.43  21 3.45  21 3.45  11 3.47  16 3.47  17 3.73   3 4.29
                             1 4.38   1 4.38
   6  0.330  0.250  0.084-  13 3.43  10 3.43  22 3.45  22 3.45  15 3.47  12 3.47  18 3.73   4 4.29
                             2 4.38   2 4.38
   7  0.128  0.250  0.395-  14 3.43   9 3.43  23 3.54  23 3.54  19 3.71  16 3.78  11 3.78  15 3.79
                            12 3.79  24 3.86   3 4.37   3 4.37   1 4.63
   8  0.262  0.750  0.605-  10 3.43  13 3.43  24 3.54  24 3.54  20 3.71  12 3.78  15 3.78  11 3.79
                            16 3.79  23 3.86   4 4.37   4 4.37   2 4.63
   9  0.073  0.073  0.142-  14 2.40  21 2.43  19 2.45   7 3.43   5 3.43   3 3.45
  10  0.317  0.927  0.858-  13 2.40  22 2.43  20 2.45   8 3.43   6 3.43   4 3.45
  11  0.115  0.928  0.660-  16 2.42  23 2.44  17 2.44   1 3.45   5 3.47   4 3.60   7 3.78   8 3.79

[...]

  17  0.031  0.750  0.600-  23 2.43  11 2.44  16 2.44   1 3.65   1 3.65   5 3.73
  18  0.359  0.250  0.400-  24 2.43  15 2.44  12 2.44   2 3.65   2 3.65   6 3.73
  19  0.157  0.250  0.081-  21 2.42  14 2.45   9 2.45   4 3.33   3 3.65   3 3.65   7 3.71
  20  0.233  0.750  0.919-  22 2.42  10 2.45  13 2.45   3 3.33   4 3.65   4 3.65   8 3.71
  21  0.074  0.250  0.960-  19 2.42  14 2.43   9 2.43   1 3.40   5 3.45   5 3.45   4 3.63
  22  0.316  0.750  0.040-  20 2.42  10 2.43  13 2.43   2 3.40   6 3.45   6 3.45   3 3.63
  23  0.113  0.750  0.478-  17 2.43  11 2.44  16 2.44   7 3.54   7 3.54   3 3.76   8 3.86
  24  0.276  0.250  0.522-  18 2.43  15 2.44  12 2.44   8 3.54   8 3.54   4 3.76   7 3.86

  LATTYP: Found a simple orthorhombic cell.
 ALAT       =     6.7778496742
 B/A-ratio  =     1.7117734747
 C/A-ratio  =     3.5423429602

  Lattice vectors:

 A1 = (   0.0000000000,   6.7778496742,   0.0000000000)
 A2 = (   0.0000000000,   0.0000000000, -11.6021432877)
 A3 = ( -24.0094680786,   0.0000000000,   0.0000000000)

Analysis of symmetry for initial positions (statically):
 Subroutine PRICEL returns:
 Original cell was already a primitive cell.

 Routine SETGRP: Setting up the symmetry group for a
 simple orthorhombic supercell.

 Subroutine GETGRP returns: Found  4 space group operations
 (whereof  1 operations were pure point group operations)
 out of a pool of  8 trial point group operations.

The static configuration has the point symmetry C_1 .
 The point group associated with its full space group is C_2h.

Analysis of symmetry for dynamics (positions and initial velocities):
 Subroutine PRICEL returns:
 Original cell was already a primitive cell.

[...]

The dynamic configuration has the point symmetry C_1 .
 The point group associated with its full space group is C_2h.

Analysis of constrained symmetry for selective dynamics:
 Subroutine PRICEL returns:
 Original cell was already a primitive cell.

 Routine SETGRP: Setting up the symmetry group for a
 simple orthorhombic supercell.

 Subroutine GETGRP returns: Found  4 space group operations
 (whereof  1 operations were pure point group operations)
 out of a pool of  8 trial point group operations.

The constrained configuration has the point symmetry C_1 .
 The point group associated with its full space group is C_2h.

 Subroutine INISYM returns: Found  4 space group operations
 (whereof  1 operations are pure point group operations),
 and found     1 'primitive' translations

 KPOINTS: k-density: 8.0

Automatic generation of k-mesh.
Space group operators:
 irot       det(A)        alpha          n_x          n_y          n_z        tau_x        tau_y        tau_z
    1     1.000000     0.000000     1.000000     0.000000     0.000000     0.000000     0.000000     0.000000
    2    -1.000000     0.000000     1.000000     0.000000     0.000000    -0.610176     0.000000     0.000000
    3     1.000000   180.000000     0.000000     1.000000     0.000000    -0.610176     0.500000     0.000000
    4    -1.000000   180.000000     0.000000     1.000000     0.000000     0.000000     0.500000     0.000000

 Subroutine IBZKPT returns following result:

 Found     15 irreducible k-points:

 Following reciprocal coordinates:
            Coordinates               Weight
  0.000000  0.000000  0.000000      1.000000
  0.000000  0.125000  0.000000      2.000000
  0.000000  0.250000  0.000000      2.000000
  0.000000  0.375000  0.000000      2.000000
  0.000000  0.500000  0.000000      1.000000
  0.000000  0.000000  0.200000      2.000000
  0.000000  0.125000  0.200000      4.000000
  0.000000  0.250000  0.200000      4.000000
  0.000000  0.375000  0.200000      4.000000
  0.000000  0.500000  0.200000      2.000000
  0.000000  0.000000  0.400000      2.000000
  0.000000  0.125000  0.400000      4.000000
  0.000000  0.250000  0.400000      4.000000
  0.000000  0.375000  0.400000      4.000000
  0.000000  0.500000  0.400000      2.000000

 Following cartesian coordinates:
            Coordinates               Weight
  0.000000  0.000000  0.000000      1.000000
  0.000000  0.018442  0.000000      2.000000
  0.000000  0.036885  0.000000      2.000000
  0.000000  0.055327  0.000000      2.000000
  0.000000  0.073770  0.000000      1.000000
  0.000000  0.000000  0.017238      2.000000
  0.000000  0.018442  0.017238      4.000000
  0.000000  0.036885  0.017238      4.000000
  0.000000  0.055327  0.017238      4.000000
  0.000000  0.073770  0.017238      2.000000
  0.000000  0.000000  0.034476      2.000000
  0.000000  0.018442  0.034476      4.000000
  0.000000  0.036885  0.034476      4.000000
  0.000000  0.055327  0.034476      4.000000
  0.000000  0.073770  0.034476      2.000000

 TETIRR: Found    108 inequivalent tetrahedra from      240

 SYSTEM =  unknown system
 POSCAR =  ba8 si16

 Startparameter for this run:
   NWRITE =      2    write-flag & timer
   PREC   = normal    normal or accurate (medium, high low for compatibility)
   ISTART =      0    job   : 0-new  1-cont  2-samecut
   ICHARG =      2    charge: 1-file 2-atom 10-const
   ISPIN  =      1    spin polarized calculation?
   LNONCOLLINEAR =      F non collinear calculations
   LSORBIT =      F    spin-orbit coupling
   INIWAV =      1    electr: 0-lowe 1-rand  2-diag
   LASPH  =      F    aspherical Exc in radial PAW
   METAGGA=      F    non-selfconsistent MetaGGA calc.

 Electronic Relaxation 1
   ENCUT  =  500.0 eV  36.75 Ry    6.06 a.u.  43.77 12.36 21.15*2*pi/ulx,y,z
   ENINI  =  500.0     initial cutoff
   ENAUG  =  351.2 eV  augmentation charge cutoff
   NELM   =    100;   NELMIN=  2; NELMDL= -5     # of ELM steps
   EDIFF  = 0.1E-05   stopping-criterion for ELM
   LREAL  =      T    real-space projection
   NLSPLINE    = F    spline interpolate recip. space projectors
   LCOMPAT=      F    compatible to vasp.4.4
   GGA_COMPAT  = T    GGA compatible to vasp.4.4-vasp.4.6
   LMAXPAW     = -100 max onsite density
   LMAXMIX     =    2 max onsite mixed and CHGCAR
   VOSKOWN=      0    Vosko Wilk Nusair interpolation
   ROPT   =   -0.00050  -0.00050
 Ionic relaxation
   EDIFFG = -.1E-02   stopping-criterion for IOM
   NSW    =      0    number of steps for IOM
   NBLOCK =      1;   KBLOCK =      1    inner block; outer block
   IBRION =     -1    ionic relax: 0-MD 1-quasi-New 2-CG
   NFREE  =      0    steps in history (QN), initial steepest desc. (CG)
   ISIF   =      2    stress and relaxation
   IWAVPR =     10    prediction:  0-non 1-charg 2-wave 3-comb
   ISYM   =      2    0-nonsym 1-usesym 2-fastsym
   LCORR  =      T    Harris-Foulkes like correction to forces

   POTIM  = 0.3000    time-step for ionic-motion
   TEIN   =    0.0    initial temperature
   TEBEG  =    0.0;   TEEND  =   0.0 temperature during run
   SMASS  =  -3.00    Nose mass-parameter (am)
   estimated Nose-frequenzy (Omega)   =  0.10E-29 period in steps =****** mass=  -0.132E-25a.u.
   SCALEE = 1.0000    scale energy and forces
[...]
  -Hartree energ DENC   =    -17600.11448242
  -exchange      EXHF   =         0.00000000
  -V(xc)+E(xc)   XCENC  =        41.90719222
  PAW double counting   =      3692.15173346    -3390.49189382
  entropy T*S    EENTRO =         0.00000000
  eigenvalues    EBANDS =      -462.76364325
  atomic energy  EATOM  =      7250.85976021
  Solvation  Ediel_sol  =         0.00000000
  free energy    TOTEN  =      1184.02150560 eV

  energy without entropy =     1184.02150560  energy(sigma->0) =     1184.02150560

[...]

 eigenvalue-minimisations  :  3840
 total energy-change (2. order) :-0.1124176E+04  (-0.1095147E+04)
 number of electron     144.0000000 magnetization
 augmentation part      144.0000000 magnetization

[...]

 Broyden mixing:
  rms(total) = 0.91821E+00    rms(broyden)= 0.91820E+00
  rms(prec ) = 0.11921E+01
  weight for this iteration     100.00

[...]

 eigenvalues of (default mixing * dielectric matrix)
  average eigenvalue GAMMA=   1.5425
  1.5425

[...]

 eigenvalue-minimisations  :  3144
 total energy-change (2. order) : 0.8344670E-02  (-0.7146189E-02)
 number of electron     144.0000001 magnetization
 augmentation part      -17.6475052 magnetization

[...]

 Broyden mixing:
  rms(total) = 0.16132E-04    rms(broyden)= 0.16132E-04
  rms(prec ) = 0.23433E-04
  weight for this iteration     100.00

 eigenvalues of (default mixing * dielectric matrix)
  average eigenvalue GAMMA=   2.3601
  9.0359  7.0016  3.8157  3.8157  2.6889  2.4547  2.1680  1.8198  0.9062  0.9062
  1.2685  1.2685  1.3517  1.2100  1.2100  0.9568  0.9568  1.0032  1.0032

[...]

--------------------------------------- Iteration      1(  25)  ---------------------------------------

 BZINTS: Fermi energy: -0.482263;144.000000 electrons
         Band energy:***********;  BLOECHL correction:  0.000000

 eigenvalue-minimisations  :  1896
 total energy-change (2. order) :-0.8657107E-06  (-0.1433779E-07)
 number of electron     144.0000001 magnetization
 augmentation part      -17.6461396 magnetization

 Free energy of the ion-electron system (eV)
  alpha Z        PSCENC =       170.45750602
  Ewald energy   TEWEN  =     11482.01533319
  -Hartree energ DENC   =    -17908.82859554
  -exchange      EXHF   =         0.00000000
  -V(xc)+E(xc)   XCENC  =        49.24033115
  PAW double counting   =      3823.12260738    -3536.86759682
  entropy T*S    EENTRO =         0.00000000
  eigenvalues    EBANDS =     -1434.88341662
  atomic energy  EATOM  =      7250.85976021
  Solvation  Ediel_sol  =         0.00000000
  free energy    TOTEN  =      -104.88407102 eV

  energy without entropy =     -104.88407102  energy(sigma->0) =     -104.88407102

 average (electrostatic) potential at core
  the test charge radii are     1.2192  0.9892
  (the norm of the test charge is              1.0000)
       1 -41.8793       2 -41.8793       3 -40.2987       4 -40.2987       5 -40.8596
       6 -40.8596       7 -40.9224       8 -40.9224       9 -88.7733      10 -88.7733
      11 -89.1864      12 -89.1864      13 -88.7733      14 -88.7733      15 -89.1864
      16 -89.1864      17 -89.2429      18 -89.2429      19 -88.7868      20 -88.7868
      21 -88.9460      22 -88.9460      23 -89.1767      24 -89.1767

 E-fermi :  -0.4823     XC(G=0):  -4.0077     alpha+bet : -3.8451

 k-point     1 :       0.0000    0.0000    0.0000
  band No.  band energies     occupation
      1     -29.4933      2.00000
      2     -29.4933      2.00000
      3     -28.5403      2.00000
      4     -28.5387      2.00000
      5     -28.5034      2.00000
      6     -28.5033      2.00000
      7     -27.9532      2.00000
      8     -27.9523      2.00000
      9     -14.8389      2.00000
     10     -14.8384      2.00000
     11     -14.7645      2.00000
     12     -14.7643      2.00000
     13     -14.6819      2.00000
     14     -14.6819      2.00000
     15     -13.9413      2.00000
     16     -13.9402      2.00000
     17     -13.8961      2.00000
     18     -13.8804      2.00000
     19     -13.8357      2.00000
     20     -13.8179      2.00000
     21     -13.8115      2.00000
     22     -13.7832      2.00000
     23     -13.7661      2.00000
     24     -13.7604      2.00000
     25     -13.7521      2.00000
     26     -13.7505      2.00000
     27     -13.3243      2.00000
     28     -13.2970      2.00000
     29     -13.2561      2.00000
     30     -13.2468      2.00000
     31     -13.2418      2.00000
     32     -13.2318      2.00000
     33     -11.0342      2.00000
     34     -10.9851      2.00000
     35     -10.6947      2.00000
     36     -10.6708      2.00000
     37      -6.3080      2.00000
     38      -6.2998      2.00000
     39      -6.1179      2.00000
     40      -6.0944      2.00000
     41      -6.0921      2.00000
     42      -6.0676      2.00000
     43      -5.9460      2.00000
     44      -5.9004      2.00000
     45      -5.8051      2.00000
     46      -5.6339      2.00000
     47      -5.6215      2.00000
     48      -5.6156      2.00000
     49      -3.4671      2.00000
     50      -3.0408      2.00000
     51      -2.5356      2.00000
     52      -2.5227      2.00000
     53      -2.3831      2.00000
     54      -2.1271      2.00000
     55      -1.8937      2.00000
     56      -1.8191      2.00000
     57      -1.7399      2.00000
     58      -1.7235      2.00000
     59      -1.7077      2.00000
     60      -1.6086      2.00000
[...]
     74       0.5186      0.00000
     75       0.6511      0.00000
     76       0.7853      0.00000
     77       0.8180      0.00000
     78       0.9218      0.00000
     79       1.0363      0.00000
     80       1.2707      0.00000
     81       1.3135      0.00000
     82       1.3811      0.00000
     83       1.3939      0.00000
     84       1.4524      0.00000
     85       1.4739      0.00000
     86       1.5356      0.00000
     87       1.6393      0.00000
     88       1.7151      0.00000

[...]

 k-point    15 :       0.0000    0.5000    0.4000
  band No.  band energies     occupation
      1     -29.4932      2.00000
      2     -29.4932      2.00000
      3     -28.5393      2.00000
      4     -28.5393      2.00000
      5     -28.5033      2.00000
      6     -28.5033      2.00000
      7     -27.9529      2.00000
      8     -27.9529      2.00000
      9     -14.8357      2.00000
     10     -14.8357      2.00000
     11     -14.7693      2.00000
     12     -14.7693      2.00000
     13     -14.6959      2.00000
     14     -14.6959      2.00000
     15     -13.9353      2.00000
     16     -13.9353      2.00000
     17     -13.8964      2.00000
     18     -13.8964      2.00000
     19     -13.8459      2.00000
     20     -13.8459      2.00000
     21     -13.7989      2.00000
     22     -13.7988      2.00000
     23     -13.7669      2.00000
     24     -13.7669      2.00000
     25     -13.7631      2.00000
     26     -13.7630      2.00000
     27     -13.3072      2.00000
     28     -13.3072      2.00000
     29     -13.2550      2.00000
     30     -13.2550      2.00000
     31     -13.2329      2.00000
     32     -13.2329      2.00000
     33     -10.9607      2.00000
     34     -10.9607      2.00000
     35     -10.6283      2.00000
     36     -10.6283      2.00000
     37      -6.3796      2.00000
     38      -6.3796      2.00000
     39      -6.0945      2.00000
     40      -6.0944      2.00000
     41      -6.0459      2.00000
     42      -6.0458      2.00000
     43      -5.7951      2.00000
     44      -5.7951      2.00000
     45      -5.7648      2.00000
     46      -5.7648      2.00000
     47      -5.6480      2.00000
     48      -5.6479      2.00000
     49      -2.6321      2.00000
     50      -2.6321      2.00000
     51      -2.4944      2.00000
     52      -2.4944      2.00000
     53      -2.0927      2.00000
     54      -2.0926      2.00000
     55      -2.0407      2.00000
     56      -2.0407      2.00000
     57      -1.8893      2.00000
     58      -1.8893      2.00000
     59      -1.6443      2.00000
     60      -1.6443      2.00000
[...]
     74       0.3708      0.00000
     75       0.5992      0.00000
     76       0.5992      0.00000
     77       0.7729      0.00000
     78       0.7729      0.00000
     79       0.9198      0.00000
     80       0.9198      0.00000
     81       1.0026      0.00000
     82       1.0026      0.00000
     83       1.3468      0.00000
     84       1.3468      0.00000
     85       1.5281      0.00000
     86       1.5281      0.00000
     87       1.6187      0.00000
     88       1.6187      0.00000

 soft charge-density along one line, spin component           1
         0         1         2         3         4         5         6         7         8         9
 total charge-density along one line

------------------------ aborting loop because EDIFF is reached ----------------------------------------

         DFTD3 V3.0 Rev 1
 IVDW         = 11
 DF pbe
 parameters
 VDW_S6       =    1.0000
 VDW_S8       =    0.7220
 VDW_SR       =    1.2170
 rs18     =    1.0000
 alpha6   =   14.0000
 alpha8   =   16.0000
 k1-k3    =   16.0000    1.3333   -4.0000
 VDW_RADIUS   =   50.2022 A
 VDW_CNRADIUS =   21.1671 A
 Edisp (eV)   -2.29982

 E6    (eV) :    -0.8596
 E8    (eV) :    -1.4402
 % E8        : 62.62

  FORCE on cell =-STRESS in cart. coord.  units (eV):
  Direction    XX          YY          ZZ          XY          YZ          ZX
  Alpha Z   170.45751   170.45751   170.45751
  Ewald  -19224.52644 15621.99730 15084.53112    -0.00002     0.00000   146.78676
  Hartree-16169.82915 17250.78373 16827.87454     0.00000    -0.00000   113.00406
  E(xc)    -461.79900  -459.84246  -460.28842    -0.00000    -0.00000     0.16451
  Local   33980.18486-34307.96422-33339.80441     0.00001    -0.00000  -258.13802
  n-local   338.77000   338.55397   340.05818     0.05979    -0.20425    -1.31544
  augment  -169.14642  -169.55171  -169.53027    -0.00000    -0.00000     0.26445
  Kinetic  1526.22226  1545.23029  1537.27118    -0.05402    -0.81054    -0.72030
  Fock        0.00000     0.00000     0.00000     0.00000     0.00000     0.00000
  vdW        -1.17584    -2.57803    -2.53566     0.00000    -0.00000     0.03444
  Total     -10.84223   -12.91363   -11.96625     0.00000     0.00000     0.08047
  in kB      -9.20061   -10.95838   -10.15444     0.00000     0.00000     0.06829

 VOLUME and BASIS-vectors are now :
  energy-cutoff  :      500.00
  volume of cell :     1888.05
      direct lattice vectors                 reciprocal lattice vectors
    24.009468079  0.000000000  0.000000000     0.041650236  0.000000000  0.000000000
     0.000000000  6.777849674  0.000000000     0.000000000  0.147539419  0.000000000
     0.000000000  0.000000000 11.602143288     0.000000000  0.000000000  0.086190971

  length of vectors
    24.009468079  6.777849674 11.602143288     0.041650236  0.147539419  0.086190971

 FORCES acting on ions
    electron-ion (+dipol)            ewald-force                    non-local-force                 convergence-correction
   0.772E+03 0.102E-04 0.446E+02   -.767E+03 0.987E-05 -.438E+02   -.430E+01 -.536E-18 -.815E+00   -.195E-03 -.113E-08 0.159E-04
   -.772E+03 -.630E-04 -.446E+02   0.767E+03 -.128E-04 0.438E+02   0.430E+01 -.540E-18 0.815E+00   0.195E-03 0.125E-08 -.159E-04
   0.855E+02 -.609E-04 -.393E+02   -.852E+02 -.180E-04 0.379E+02   0.163E-01 -.237E-19 0.132E+01   0.814E-04 0.190E-08 -.594E-04
   -.855E+02 0.110E-04 0.393E+02   0.852E+02 0.128E-04 -.379E+02   -.163E-01 0.201E-18 -.132E+01   -.814E-04 -.176E-08 0.593E-04
   0.620E+03 -.611E-04 -.483E+02   -.618E+03 -.165E-04 0.486E+02   -.186E+01 0.967E-18 -.360E+00   -.133E-03 0.154E-08 -.136E-03
   -.620E+03 0.902E-05 0.483E+02   0.618E+03 0.143E-04 -.486E+02   0.186E+01 -.149E-17 0.360E+00   0.133E-03 -.145E-08 0.136E-03
   0.357E+03 0.115E-04 -.127E+02   -.356E+03 0.131E-04 0.119E+02   -.627E+00 -.582E-18 0.805E+00   -.294E-04 -.169E-08 0.654E-04
   -.357E+03 -.621E-04 0.127E+02   0.356E+03 -.131E-04 -.119E+02   0.627E+00 -.301E-19 -.805E+00   0.294E-04 0.166E-08 -.654E-04
   0.272E+03 0.365E+02 -.467E+02   -.272E+03 -.380E+02 0.476E+02   -.494E-01 0.150E+01 -.853E+00   -.481E-05 0.867E-05 -.257E-04
   -.272E+03 -.365E+02 0.467E+02   0.272E+03 0.380E+02 -.476E+02   0.494E-01 -.150E+01 0.853E+00   0.481E-05 -.867E-05 0.257E-04
   0.119E+03 -.331E+02 0.283E+01   -.119E+03 0.343E+02 -.178E+01   -.186E+00 -.110E+01 -.106E+01   -.672E-04 -.367E-04 0.287E-05
   -.119E+03 0.331E+02 -.283E+01   0.119E+03 -.343E+02 0.178E+01   0.186E+00 0.110E+01 0.106E+01   0.672E-04 0.367E-04 -.287E-05
   -.272E+03 0.365E+02 0.467E+02   0.272E+03 -.380E+02 -.476E+02   0.494E-01 0.150E+01 0.853E+00   0.481E-05 0.867E-05 0.257E-04
   0.272E+03 -.365E+02 -.467E+02   -.272E+03 0.380E+02 0.476E+02   -.494E-01 -.150E+01 -.853E+00   -.481E-05 -.867E-05 -.257E-04
   -.119E+03 -.331E+02 -.283E+01   0.119E+03 0.343E+02 0.178E+01   0.186E+00 -.110E+01 0.106E+01   0.672E-04 -.367E-04 -.287E-05
   0.119E+03 0.331E+02 0.283E+01   -.119E+03 -.343E+02 -.178E+01   -.186E+00 0.110E+01 -.106E+01   -.672E-04 0.367E-04 0.287E-05
   0.327E+03 -.419E-05 0.460E+02   -.329E+03 -.605E-05 -.467E+02   0.140E+01 0.382E-18 0.666E+00   -.325E-04 0.478E-09 0.480E-04
   -.327E+03 0.615E-05 -.460E+02   0.329E+03 0.629E-05 0.467E+02   -.140E+01 -.409E-18 -.666E+00   0.325E-04 -.516E-09 -.480E-04
   0.328E+02 0.896E-05 -.107E+02   -.311E+02 0.749E-05 0.998E+01   -.151E+01 0.319E-18 0.735E+00   0.192E-05 -.713E-09 -.124E-04
   -.328E+02 -.224E-05 0.107E+02   0.311E+02 -.715E-05 -.998E+01   0.151E+01 0.295E-18 -.735E+00   -.192E-05 0.674E-09 0.124E-04
   0.238E+03 0.435E-05 0.134E+02   -.238E+03 0.805E-05 -.146E+02   -.210E+00 -.782E-18 0.110E+01   -.292E-04 -.620E-09 -.375E-04
   -.238E+03 -.548E-05 -.134E+02   0.238E+03 -.811E-05 0.146E+02   0.210E+00 0.142E-18 -.110E+01   0.292E-04 0.583E-09 0.375E-04
   0.154E+03 -.615E-05 0.590E+02   -.153E+03 -.741E-05 -.607E+02   -.629E+00 -.720E-17 0.172E+01   -.431E-04 0.630E-09 0.765E-04
   -.154E+03 0.372E-05 -.590E+02   0.153E+03 0.727E-05 0.607E+02   0.629E+00 -.996E-17 -.172E+01   0.431E-04 -.637E-09 -.765E-04
   0.915E-04 -.211E-03 0.761E-04   0.227E-12 0.163E-13 -.213E-13   -.111E-15 -.239E-15 0.222E-15   -.330E-07 0.116E-09 -.456E-08

 POSITION                                       TOTAL-FORCE (eV/Angst)
      0.13670      1.69446      8.16958         0.808329      0.000000      0.000724
      9.22277      5.08339      3.43256        -0.808329      0.000000     -0.000724
      4.36803      5.08339      2.15500         0.261441      0.000000     -0.000486
      4.99143      1.69446      9.44715        -0.261441     -0.000000      0.000486
      1.43529      5.08339     10.62465         0.657488      0.000000      0.000951
      7.92418      1.69446      0.97750        -0.657488     -0.000000     -0.000951
      3.06944      1.69446      4.58094         0.453098     -0.000000      0.000028
      6.29002      5.08339      7.02121        -0.453098     -0.000000     -0.000028
      1.75027      0.49404      1.64854        -0.112510     -0.000145      0.000165
      7.60920      6.28381      9.95360         0.112510      0.000145     -0.000165
      2.75446      6.29305      7.65367         0.210904      0.000054     -0.000063
      6.60500      0.48480      3.94847        -0.210904     -0.000054      0.000063
      7.60920      3.88297      9.95360         0.112510     -0.000145     -0.000165
      1.75027      2.89488      1.64854        -0.112510      0.000145      0.000165
      6.60500      2.90412      3.94847        -0.210904      0.000054      0.000063
      2.75446      3.87373      7.65367         0.210904     -0.000054     -0.000063
      0.74693      5.08339      6.96108        -0.212841      0.000000     -0.000232
      8.61254      1.69446      4.64106         0.212841     -0.000000      0.000232
      3.75780      1.69446      0.93494         0.221593     -0.000000      0.000223
      5.60166      5.08339     10.66720        -0.221593     -0.000000     -0.000223
      1.78112      1.69446     11.14060        -0.142113      0.000000      0.000073
      7.57835      5.08339      0.46154         0.142113      0.000000     -0.000073
      2.72362      5.08339      5.54061        -0.194238     -0.000000      0.000165
      6.63585      1.69446      6.06153         0.194238     -0.000000     -0.000165
    total drift:                                0.000091     -0.000211      0.000076

  FREE ENERGIE OF THE ION-ELECTRON SYSTEM (eV)
  free  energy   TOTEN  =      -107.18389097 eV

  energy  without entropy=     -107.18389097  energy(sigma->0) =     -107.18389097

 writing wavefunctions
 BZINTS: Fermi energy: -0.482263;144.000000 electrons
         Band energy:***********;  BLOECHL correction:  0.000000