 vasp.5.4.4.18Apr17-6-g9f103f2a35 (build Nov 21 2017 15:30:27) complex

 executed on             LinuxIFC date 2020.09.14  15:52:27

 INCAR:
 POTCAR:   PAW_PBE Ba_sv 06Sep2000
 POTCAR:   PAW_PBE Si 05Jan2001

 POTCAR:   PAW_PBE Ba_sv 06Sep2000
   VRHFIN =Ba: 5s5p6s

   TITEL  = PAW_PBE Ba_sv 06Sep2000
   POMASS =  137.327; ZVAL   =   10.000    mass and valenz
   ENMAX  =  187.210; ENMIN  =  140.408 eV
   QCUT   =   -3.709; QGAM   =    7.419    optimization parameters

   Description
     l     E      TYP  RCUT    TYP  RCUT
     0   .000     23  2.800
     0   .000     23  2.800
     1   .000     23  2.700
     1  2.000     23  2.700
     2   .000     23  2.700
     2   .000     23  2.700

 POTCAR:   PAW_PBE Si 05Jan2001
   VRHFIN =Si: s2p2

   TITEL  = PAW_PBE Si 05Jan2001
   POMASS =   28.085; ZVAL   =    4.000    mass and valenz
   ENMAX  =  245.345; ENMIN  =  184.009 eV
   QCUT   =   -4.246; QGAM   =    8.493    optimization parameters

   Description
     l     E      TYP  RCUT    TYP  RCUT
     0   .000     23  1.900
     0   .000     23  1.900
     1   .000     23  1.900
     1   .000     23  1.900
     2   .000      7  1.900

 Optimization of the real space projectors (new method)

 maximal supplied QI-value         = 13.42
 optimisation between [QCUT,QGAM] = [ 11.40, 22.81] = [ 36.42,145.68] Ry
 Optimized for a Real-space Cutoff    1.56 Angstroem

   l    n(q)    QCUT    max X(q) W(low)/X(q) W(high)/X(q)  e(spline)
   0     11    11.404     7.198    0.14E-04    0.26E-04    0.99E-07
   0     11    11.404    15.603    0.29E-04    0.72E-04    0.44E-06
   1     10    11.404     3.746    0.20E-04    0.24E-04    0.43E-07
   1     10    11.404     4.362    0.22E-03    0.97E-04    0.22E-06
   2     10    11.404     5.782    0.83E-04    0.62E-05    0.27E-06
   2     10    11.404    65.505    0.42E-03    0.31E-04    0.12E-05
 Optimization of the real space projectors (new method)

 maximal supplied QI-value         = 19.84
 optimisation between [QCUT,QGAM] = [ 11.31, 22.82] = [ 35.82,145.81] Ry
 Optimized for a Real-space Cutoff    1.16 Angstroem

   l    n(q)    QCUT    max X(q) W(low)/X(q) W(high)/X(q)  e(spline)
   0      8    11.310     8.708    0.14E-04    0.11E-04    0.43E-08
   0      8    11.310   106.241    0.27E-03    0.30E-03    0.38E-07
   1      7    11.310     5.901    0.82E-05    0.48E-04    0.19E-07
   1      7    11.310    73.241    0.27E-03    0.27E-03    0.74E-07
 PAW_PBE Ba_sv 06Sep2000                :
 PAW_PBE Si 05Jan2001                   :

 POSCAR: ba8 si16
  positions in direct lattice
  velocities in cartesian coordinates
 exchange correlation table for  LEXCH =        8
   RHO(1)=    0.500       N(1)  =     2000
   RHO(2)=  100.500       N(2)  =     4000

 ion  position               nearest neighbor table
   1  0.006  0.250  0.706-  21 3.42  16 3.45  11 3.45  17 3.66  17 3.66   5 4.39   5 4.39   7 4.63
                             4 4.72
   2  0.372  0.750  0.294-  22 3.42  12 3.45  15 3.45  18 3.66  18 3.66   6 4.39   6 4.39   8 4.63
                             3 4.72
   3  0.182  0.750  0.187-  20 3.30  22 3.40  12 3.42  15 3.42   9 3.45  14 3.45  19 3.64  19 3.64
                            23 3.74   5 4.27   7 4.37   7 4.37   2 4.72
   4  0.195  0.250  0.813-  19 3.30  21 3.40  16 3.42  11 3.42  13 3.45  10 3.45  20 3.64  20 3.64
                            24 3.74   6 4.27   8 4.37   8 4.37   1 4.72
   5  0.060  0.750  0.919-   9 3.43  14 3.43  21 3.45  21 3.45  11 3.51  16 3.51  17 3.77  20 3.87
                             3 4.27   1 4.39   1 4.39
   6  0.318  0.250  0.081-  13 3.43  10 3.43  22 3.45  22 3.45  15 3.51  12 3.51  18 3.77  19 3.87
                             4 4.27   2 4.39   2 4.39
   7  0.128  0.250  0.397-  14 3.42   9 3.42  15 3.51  12 3.51  23 3.53  23 3.53  24 3.58  19 3.69
                            16 3.75  11 3.75   3 4.37   3 4.37   1 4.63
   8  0.249  0.750  0.603-  10 3.42  13 3.42  11 3.51  16 3.51  24 3.53  24 3.53  23 3.58  20 3.69
                            12 3.75  15 3.75   4 4.37   4 4.37   2 4.63
   9  0.073  0.073  0.146-  14 2.40  21 2.42  19 2.44   7 3.42   5 3.43   3 3.45
  10  0.304  0.927  0.854-  13 2.40  22 2.42  20 2.44   8 3.42   6 3.43   4 3.45
  11  0.115  0.928  0.659-  16 2.41  23 2.43  17 2.44   4 3.42   1 3.45   5 3.51   8 3.51   7 3.75

  12  0.263  0.072  0.341-  15 2.41  24 2.43  18 2.44   3 3.42   2 3.45   6 3.51   7 3.51   8 3.75

[...]

  21  0.074  0.250  0.964-  14 2.42   9 2.42  19 2.43   4 3.40   1 3.42   5 3.45   5 3.45
  22  0.303  0.750  0.036-  10 2.42  13 2.42  20 2.43   3 3.40   2 3.42   6 3.45   6 3.45
  23  0.113  0.750  0.477-  11 2.43  16 2.43  17 2.44   7 3.53   7 3.53   8 3.58   3 3.74
  24  0.264  0.250  0.523-  15 2.43  12 2.43  18 2.44   8 3.53   8 3.53   7 3.58   4 3.74

  LATTYP: Found a simple orthorhombic cell.
 ALAT       =     6.7778496742
 B/A-ratio  =     1.7117734747
 C/A-ratio  =     3.5423429602

  Lattice vectors:

 A1 = (   0.0000000000,   6.7778496742,   0.0000000000)
 A2 = (   0.0000000000,   0.0000000000, -11.6021432877)
 A3 = ( -24.0094680786,   0.0000000000,   0.0000000000)

Analysis of symmetry for initial positions (statically):
 Subroutine PRICEL returns:
 Original cell was already a primitive cell.

 Routine SETGRP: Setting up the symmetry group for a
 simple orthorhombic supercell.

 Subroutine GETGRP returns: Found  4 space group operations
 (whereof  1 operations were pure point group operations)
 out of a pool of  8 trial point group operations.

The static configuration has the point symmetry C_1 .
 The point group associated with its full space group is C_2h.

Analysis of symmetry for dynamics (positions and initial velocities):
 Subroutine PRICEL returns:
 Original cell was already a primitive cell.

[...]

The dynamic configuration has the point symmetry C_1 .
 The point group associated with its full space group is C_2h.

Analysis of constrained symmetry for selective dynamics:
 Subroutine PRICEL returns:
 Original cell was already a primitive cell.

 Routine SETGRP: Setting up the symmetry group for a
 simple orthorhombic supercell.

 Subroutine GETGRP returns: Found  4 space group operations
 (whereof  1 operations were pure point group operations)
 out of a pool of  8 trial point group operations.

The constrained configuration has the point symmetry C_1 .
 The point group associated with its full space group is C_2h.

 Subroutine INISYM returns: Found  4 space group operations
 (whereof  1 operations are pure point group operations),
 and found     1 'primitive' translations

 KPOINTS: k-density: 8.0

Automatic generation of k-mesh.
Space group operators:
 irot       det(A)        alpha          n_x          n_y          n_z        tau_x        tau_y        tau_z
    1     1.000000     0.000000     1.000000     0.000000     0.000000     0.000000     0.000000     0.000000
    2    -1.000000     0.000000     1.000000     0.000000     0.000000    -0.622671     0.000000     0.000000
    3     1.000000   180.000000     0.000000     1.000000     0.000000    -0.622671     0.500000     0.000000
    4    -1.000000   180.000000     0.000000     1.000000     0.000000     0.000000     0.500000     0.000000

 Subroutine IBZKPT returns following result:

 Found     15 irreducible k-points:

 Following reciprocal coordinates:
            Coordinates               Weight
  0.000000  0.000000  0.000000      1.000000
  0.000000  0.125000  0.000000      2.000000
  0.000000  0.250000  0.000000      2.000000
  0.000000  0.375000  0.000000      2.000000
  0.000000  0.500000  0.000000      1.000000
  0.000000  0.000000  0.200000      2.000000
  0.000000  0.125000  0.200000      4.000000
  0.000000  0.250000  0.200000      4.000000
  0.000000  0.375000  0.200000      4.000000
  0.000000  0.500000  0.200000      2.000000
  0.000000  0.000000  0.400000      2.000000
  0.000000  0.125000  0.400000      4.000000
  0.000000  0.250000  0.400000      4.000000
  0.000000  0.375000  0.400000      4.000000
  0.000000  0.500000  0.400000      2.000000

 Following cartesian coordinates:
            Coordinates               Weight
  0.000000  0.000000  0.000000      1.000000
  0.000000  0.018442  0.000000      2.000000
  0.000000  0.036885  0.000000      2.000000
  0.000000  0.055327  0.000000      2.000000
  0.000000  0.073770  0.000000      1.000000
  0.000000  0.000000  0.017238      2.000000
  0.000000  0.018442  0.017238      4.000000
  0.000000  0.036885  0.017238      4.000000
  0.000000  0.055327  0.017238      4.000000
  0.000000  0.073770  0.017238      2.000000
  0.000000  0.000000  0.034476      2.000000
  0.000000  0.018442  0.034476      4.000000
  0.000000  0.036885  0.034476      4.000000
  0.000000  0.055327  0.034476      4.000000
  0.000000  0.073770  0.034476      2.000000

 TETIRR: Found    108 inequivalent tetrahedra from      240

 SYSTEM =  unknown system
 POSCAR =  ba8 si16

 Startparameter for this run:
   NWRITE =      2    write-flag & timer
   PREC   = normal    normal or accurate (medium, high low for compatibility)
   ISTART =      0    job   : 0-new  1-cont  2-samecut
   ICHARG =      2    charge: 1-file 2-atom 10-const
   ISPIN  =      1    spin polarized calculation?
   LNONCOLLINEAR =      F non collinear calculations
   LSORBIT =      F    spin-orbit coupling
   INIWAV =      1    electr: 0-lowe 1-rand  2-diag
   LASPH  =      F    aspherical Exc in radial PAW
   METAGGA=      F    non-selfconsistent MetaGGA calc.

 Electronic Relaxation 1
   ENCUT  =  500.0 eV  36.75 Ry    6.06 a.u.  43.77 12.36 21.15*2*pi/ulx,y,z
   ENINI  =  500.0     initial cutoff
   ENAUG  =  351.2 eV  augmentation charge cutoff
   NELM   =    100;   NELMIN=  2; NELMDL= -5     # of ELM steps
   EDIFF  = 0.1E-05   stopping-criterion for ELM
   LREAL  =      T    real-space projection
   NLSPLINE    = F    spline interpolate recip. space projectors
   LCOMPAT=      F    compatible to vasp.4.4
   GGA_COMPAT  = T    GGA compatible to vasp.4.4-vasp.4.6
   LMAXPAW     = -100 max onsite density
   LMAXMIX     =    2 max onsite mixed and CHGCAR
   VOSKOWN=      0    Vosko Wilk Nusair interpolation
   ROPT   =   -0.00050  -0.00050
 Ionic relaxation
   EDIFFG = -.1E-02   stopping-criterion for IOM
   NSW    =      0    number of steps for IOM
   NBLOCK =      1;   KBLOCK =      1    inner block; outer block
   IBRION =     -1    ionic relax: 0-MD 1-quasi-New 2-CG
   NFREE  =      0    steps in history (QN), initial steepest desc. (CG)
   ISIF   =      2    stress and relaxation
   IWAVPR =     10    prediction:  0-non 1-charg 2-wave 3-comb
   ISYM   =      2    0-nonsym 1-usesym 2-fastsym
   LCORR  =      T    Harris-Foulkes like correction to forces

   POTIM  = 0.3000    time-step for ionic-motion
   TEIN   =    0.0    initial temperature
   TEBEG  =    0.0;   TEEND  =   0.0 temperature during run
   SMASS  =  -3.00    Nose mass-parameter (am)
   estimated Nose-frequenzy (Omega)   =  0.10E-29 period in steps =****** mass=  -0.132E-25a.u.
   SCALEE = 1.0000    scale energy and forces
   NPACO  =    256;   APACO  = 16.0  distance and # of slots for P.C.
   PSTRESS=    0.0 pullay stress

  Mass of Ions in am
   POMASS = 137.33 28.09
  Ionic Valenz
   ZVAL   =  10.00  4.00
[...]
  -exchange      EXHF   =         0.00000000
  -V(xc)+E(xc)   XCENC  =        43.05916193
  PAW double counting   =      3692.15173346    -3390.49189382
  entropy T*S    EENTRO =         0.00000000
  eigenvalues    EBANDS =      -463.58788556
  atomic energy  EATOM  =      7250.85976021
  Solvation  Ediel_sol  =         0.00000000
  free energy    TOTEN  =      1195.29221692 eV

  energy without entropy =     1195.29221692  energy(sigma->0) =     1195.29221692

[...]

 eigenvalue-minimisations  :  3768
 total energy-change (2. order) :-0.1132295E+04  (-0.1102433E+04)
 number of electron     144.0000000 magnetization
 augmentation part      144.0000000 magnetization

[...]

 Broyden mixing:
  rms(total) = 0.90933E+00    rms(broyden)= 0.90933E+00
  rms(prec ) = 0.11982E+01
  weight for this iteration     100.00

[...]

 eigenvalues of (default mixing * dielectric matrix)
  average eigenvalue GAMMA=   1.5327
  1.5327

[...]

 eigenvalue-minimisations  :  3096
 total energy-change (2. order) : 0.9113595E-02  (-0.6593312E-02)
 number of electron     143.9999990 magnetization
 augmentation part      -17.6772234 magnetization

[...]

 Broyden mixing:
  rms(total) = 0.60825E-05    rms(broyden)= 0.60825E-05
  rms(prec ) = 0.88890E-05
  weight for this iteration     100.00

 eigenvalues of (default mixing * dielectric matrix)
  average eigenvalue GAMMA=   2.3361
  9.1515  7.0164  4.0161  3.8350  2.8641  2.5170  1.9017  1.9017  1.4986  1.4986
  0.9173  0.9173  1.2246  1.2246  1.1421  1.1421  1.0638  0.9676  0.9676  0.9536

[...]

--------------------------------------- Iteration      1(  26)  ---------------------------------------

 BZINTS: Fermi energy: -0.401057;144.000000 electrons
         Band energy:***********;  BLOECHL correction:  0.000000

 eigenvalue-minimisations  :  1936
 total energy-change (2. order) :-0.2235465E-06  (-0.4885318E-08)
 number of electron     143.9999990 magnetization
 augmentation part      -17.6754135 magnetization

 Free energy of the ion-electron system (eV)
  alpha Z        PSCENC =       170.45750602
  Ewald energy   TEWEN  =     12493.05972199
  -Hartree energ DENC   =    -18925.26506818
  -exchange      EXHF   =         0.00000000
  -V(xc)+E(xc)   XCENC  =        50.22757259
  PAW double counting   =      3834.41504928    -3548.24253703
  entropy T*S    EENTRO =         0.00000000
  eigenvalues    EBANDS =     -1430.77876806
  atomic energy  EATOM  =      7250.85976021
  Solvation  Ediel_sol  =         0.00000000
  free energy    TOTEN  =      -105.26676317 eV

  energy without entropy =     -105.26676317  energy(sigma->0) =     -105.26676317

 average (electrostatic) potential at core
  the test charge radii are     1.2192  0.9892
  (the norm of the test charge is              1.0000)
       1 -41.9280       2 -41.9280       3 -40.0241       4 -40.0241       5 -40.8325
       6 -40.8324       7 -40.6700       8 -40.6700       9 -88.7613      10 -88.7614
      11 -89.2056      12 -89.2057      13 -88.7614      14 -88.7613      15 -89.2056
      16 -89.2056      17 -89.2797      18 -89.2797      19 -88.7954      20 -88.7954
      21 -88.9023      22 -88.9023      23 -89.2029      24 -89.2029

 E-fermi :  -0.4011     XC(G=0):  -3.9571     alpha+bet : -3.8451

 k-point     1 :       0.0000    0.0000    0.0000
  band No.  band energies     occupation
      1     -29.5404      2.00000
      2     -29.5404      2.00000
      3     -28.4749      2.00000
      4     -28.4748      2.00000
      5     -28.3090      2.00000
      6     -28.3060      2.00000
      7     -27.7087      2.00000
      8     -27.7078      2.00000
      9     -14.8810      2.00000
     10     -14.8804      2.00000
     11     -14.8081      2.00000
     12     -14.8079      2.00000
     13     -14.7293      2.00000
     14     -14.7292      2.00000
     15     -13.9008      2.00000
     16     -13.8977      2.00000
     17     -13.7673      2.00000
     18     -13.7663      2.00000
     19     -13.7306      2.00000
     20     -13.7264      2.00000
     21     -13.7003      2.00000
     22     -13.6833      2.00000
     23     -13.6472      2.00000
     24     -13.6240      2.00000
     25     -13.6050      2.00000
     26     -13.5759      2.00000
     27     -13.1246      2.00000
     28     -13.0996      2.00000
     29     -13.0682      2.00000
     30     -13.0633      2.00000
     31     -13.0356      2.00000
     32     -13.0258      2.00000
     33     -11.1065      2.00000
     34     -11.0363      2.00000
     35     -10.6837      2.00000
     36     -10.6527      2.00000
     37      -6.3763      2.00000
     38      -6.3642      2.00000
     39      -6.1654      2.00000
     40      -6.1643      2.00000
     41      -6.1639      2.00000
     42      -6.1437      2.00000
     43      -5.9364      2.00000
     44      -5.9222      2.00000
     45      -5.7892      2.00000
     46      -5.6214      2.00000
     47      -5.6061      2.00000
     48      -5.6039      2.00000
     49      -3.5297      2.00000
     50      -3.0265      2.00000
     51      -2.5433      2.00000
     52      -2.5383      2.00000
     53      -2.4588      2.00000
     54      -2.1234      2.00000
     55      -1.9263      2.00000
     56      -1.8868      2.00000
     57      -1.8028      2.00000
     58      -1.7786      2.00000
     59      -1.7437      2.00000
     60      -1.6632      2.00000
[...]
     74       0.5190      0.00000
     75       0.5912      0.00000
     76       0.7617      0.00000
     77       0.7791      0.00000
     78       0.8589      0.00000
     79       1.0538      0.00000
     80       1.2651      0.00000
     81       1.2817      0.00000
     82       1.3390      0.00000
     83       1.4304      0.00000
     84       1.4322      0.00000
     85       1.4871      0.00000
     86       1.5545      0.00000
     87       1.6438      0.00000
     88       1.7172      0.00000

[...]

 k-point    15 :       0.0000    0.5000    0.4000
  band No.  band energies     occupation
      1     -29.5403      2.00000
      2     -29.5403      2.00000
      3     -28.4748      2.00000
      4     -28.4748      2.00000
      5     -28.3073      2.00000
      6     -28.3073      2.00000
      7     -27.7083      2.00000
      8     -27.7083      2.00000
      9     -14.8775      2.00000
     10     -14.8775      2.00000
     11     -14.8125      2.00000
     12     -14.8125      2.00000
     13     -14.7426      2.00000
     14     -14.7426      2.00000
     15     -13.8939      2.00000
     16     -13.8939      2.00000
     17     -13.7687      2.00000
     18     -13.7687      2.00000
     19     -13.7541      2.00000
     20     -13.7541      2.00000
     21     -13.7001      2.00000
     22     -13.7001      2.00000
     23     -13.6589      2.00000
     24     -13.6589      2.00000
     25     -13.5807      2.00000
     26     -13.5807      2.00000
     27     -13.1070      2.00000
     28     -13.1070      2.00000
     29     -13.0663      2.00000
     30     -13.0663      2.00000
     31     -13.0310      2.00000
     32     -13.0310      2.00000
     33     -11.0219      2.00000
     34     -11.0219      2.00000
     35     -10.6120      2.00000
     36     -10.6120      2.00000
     37      -6.4396      2.00000
     38      -6.4396      2.00000
     39      -6.1500      2.00000
     40      -6.1500      2.00000
     41      -6.1006      2.00000
     42      -6.1005      2.00000
     43      -5.8016      2.00000
     44      -5.8016      2.00000
     45      -5.7648      2.00000
     46      -5.7647      2.00000
     47      -5.6333      2.00000
     48      -5.6333      2.00000
     49      -2.7033      2.00000
     50      -2.7033      2.00000
     51      -2.5139      2.00000
     52      -2.5139      2.00000
     53      -2.1666      2.00000
     54      -2.1666      2.00000
     55      -2.1069      2.00000
     56      -2.1069      2.00000
     57      -1.8920      2.00000
     58      -1.8920      2.00000
     59      -1.6889      2.00000
     60      -1.6889      2.00000
[...]
     74       0.3220      0.00000
     75       0.5612      0.00000
     76       0.5612      0.00000
     77       0.7384      0.00000
     78       0.7384      0.00000
     79       0.9381      0.00000
     80       0.9381      0.00000
     81       0.9996      0.00000
     82       0.9997      0.00000
     83       1.3553      0.00000
     84       1.3553      0.00000
     85       1.5384      0.00000
     86       1.5384      0.00000
     87       1.6390      0.00000
     88       1.6390      0.00000

 soft charge-density along one line, spin component           1
         0         1         2         3         4         5         6         7         8         9
 total charge-density along one line

------------------------ aborting loop because EDIFF is reached ----------------------------------------

         DFTD3 V3.0 Rev 1
 IVDW         = 11
 DF pbe
 parameters
 VDW_S6       =    1.0000
 VDW_S8       =    0.7220
 VDW_SR       =    1.2170
 rs18     =    1.0000
 alpha6   =   14.0000
 alpha8   =   16.0000
 k1-k3    =   16.0000    1.3333   -4.0000
 VDW_RADIUS   =   50.2022 A
 VDW_CNRADIUS =   21.1671 A
 Edisp (eV)   -2.35493

 E6    (eV) :    -0.8804
 E8    (eV) :    -1.4746
 % E8        : 62.62

  FORCE on cell =-STRESS in cart. coord.  units (eV):
  Direction    XX          YY          ZZ          XY          YZ          ZX
  Alpha Z   170.45751   170.45751   170.45751
  Ewald  -20272.70806 16648.51553 16117.23864    -0.00002     0.00000   143.94395
  Hartree-17198.08117 18270.55969 17852.78439     0.00000    -0.00000   108.20683
  E(xc)    -462.46900  -460.81028  -461.19396    -0.00000    -0.00000     0.22086
  Local   36054.12649-36354.30763-35397.00827     0.00001    -0.00000  -249.69455
  n-local   339.18190   339.53118   340.00833     0.05967    -0.19188    -1.80202
  augment  -169.40514  -169.69875  -169.55601    -0.00000    -0.00000     0.35547
  Kinetic  1533.70060  1547.95799  1540.34783    -0.02160    -0.80970    -1.19065
  Fock        0.00000     0.00000     0.00000     0.00000     0.00000     0.00000
  vdW        -1.38222    -2.73111    -2.62171     0.00000    -0.00000     0.01884
  Total      -6.57907   -10.52588    -9.54326     0.00000     0.00000     0.05872
  in kB      -5.58294    -8.93216    -8.09832     0.00000     0.00000     0.04983

 VOLUME and BASIS-vectors are now :
  energy-cutoff  :      500.00
  volume of cell :     1888.05
      direct lattice vectors                 reciprocal lattice vectors
    24.009468079  0.000000000  0.000000000     0.041650236  0.000000000  0.000000000
     0.000000000  6.777849674  0.000000000     0.000000000  0.147539419  0.000000000
     0.000000000  0.000000000 11.602143288     0.000000000  0.000000000  0.086190971

  length of vectors
    24.009468079  6.777849674 11.602143288     0.041650236  0.147539419  0.086190971

 FORCES acting on ions
    electron-ion (+dipol)            ewald-force                    non-local-force                 convergence-correction
   0.796E+03 0.102E-04 0.439E+02   -.791E+03 0.979E-05 -.430E+02   -.425E+01 -.168E-18 -.826E+00   0.268E-04 -.720E-09 0.106E-04
   -.796E+03 -.633E-04 -.439E+02   0.791E+03 -.127E-04 0.430E+02   0.425E+01 -.557E-19 0.826E+00   -.268E-04 0.775E-09 -.106E-04
   0.748E+02 -.595E-04 -.349E+02   -.746E+02 -.194E-04 0.337E+02   -.375E+00 0.150E-18 0.123E+01   0.609E-04 0.119E-08 -.376E-04
   -.748E+02 0.122E-04 0.349E+02   0.746E+02 0.134E-04 -.337E+02   0.375E+00 0.128E-18 -.123E+01   -.609E-04 -.110E-08 0.376E-04
   0.641E+03 -.610E-04 -.493E+02   -.639E+03 -.169E-04 0.499E+02   -.209E+01 0.909E-18 -.575E+00   0.840E-04 0.962E-09 -.548E-04
   -.641E+03 0.904E-05 0.493E+02   0.639E+03 0.147E-04 -.499E+02   0.209E+01 -.137E-17 0.575E+00   -.840E-04 -.913E-09 0.548E-04
   0.374E+03 0.126E-04 -.800E+01   -.372E+03 0.136E-04 0.716E+01   -.131E+01 0.176E-17 0.864E+00   0.854E-04 -.107E-08 0.145E-04
   -.374E+03 -.613E-04 0.800E+01   0.372E+03 -.136E-04 -.716E+01   0.131E+01 -.341E-17 -.864E+00   -.854E-04 0.106E-08 -.145E-04
   0.278E+03 0.368E+02 -.467E+02   -.278E+03 -.383E+02 0.476E+02   -.111E+00 0.148E+01 -.867E+00   0.639E-04 0.372E-04 -.354E-04
   -.278E+03 -.368E+02 0.467E+02   0.278E+03 0.383E+02 -.476E+02   0.111E+00 -.148E+01 0.867E+00   -.639E-04 -.372E-04 0.353E-04
   0.128E+03 -.323E+02 0.278E+01   -.128E+03 0.334E+02 -.182E+01   -.717E+00 -.110E+01 -.952E+00   0.178E-04 -.216E-04 0.176E-06
   -.128E+03 0.323E+02 -.278E+01   0.128E+03 -.334E+02 0.182E+01   0.717E+00 0.110E+01 0.952E+00   -.178E-04 0.216E-04 -.174E-06
   -.278E+03 0.368E+02 0.467E+02   0.278E+03 -.383E+02 -.476E+02   0.111E+00 0.148E+01 0.867E+00   -.639E-04 0.372E-04 0.353E-04
   0.278E+03 -.368E+02 -.467E+02   -.278E+03 0.383E+02 0.476E+02   -.111E+00 -.148E+01 -.867E+00   0.639E-04 -.372E-04 -.354E-04
   -.128E+03 -.323E+02 -.278E+01   0.128E+03 0.334E+02 0.182E+01   0.717E+00 -.110E+01 0.952E+00   -.178E-04 -.216E-04 -.174E-06
   0.128E+03 0.323E+02 0.278E+01   -.128E+03 -.334E+02 -.182E+01   -.717E+00 0.110E+01 -.952E+00   0.178E-04 0.216E-04 0.176E-06
   0.336E+03 -.425E-05 0.456E+02   -.338E+03 -.606E-05 -.462E+02   0.135E+01 0.459E-19 0.659E+00   0.438E-04 0.314E-09 0.243E-04
   -.336E+03 0.614E-05 -.456E+02   0.338E+03 0.632E-05 0.462E+02   -.135E+01 -.279E-19 -.659E+00   -.438E-04 -.321E-09 -.243E-04
   0.315E+02 0.105E-04 -.110E+02   -.300E+02 0.777E-05 0.102E+02   -.136E+01 -.262E-18 0.799E+00   -.140E-04 -.441E-09 -.129E-04
   -.315E+02 -.802E-06 0.110E+02   0.300E+02 -.741E-05 -.102E+02   0.136E+01 -.315E-18 -.799E+00   0.140E-04 0.414E-09 0.129E-04
   0.249E+03 0.446E-05 0.963E+01   -.248E+03 0.815E-05 -.108E+02   -.840E+00 -.202E-17 0.113E+01   0.556E-04 -.385E-09 0.195E-04
   -.249E+03 -.560E-05 -.963E+01   0.248E+03 -.820E-05 0.108E+02   0.840E+00 -.205E-17 -.113E+01   -.556E-04 0.366E-09 -.196E-04
   0.162E+03 -.630E-05 0.619E+02   -.161E+03 -.770E-05 -.635E+02   -.901E+00 -.600E-18 0.162E+01   0.285E-04 0.401E-09 0.402E-04
   -.162E+03 0.376E-05 -.619E+02   0.161E+03 0.750E-05 0.635E+02   0.901E+00 0.195E-17 -.162E+01   -.285E-04 -.400E-09 -.402E-04
   0.227E-04 -.205E-03 0.698E-04   -.568E-13 0.813E-14 0.142E-13   0.000E+00 0.219E-15 0.222E-15   0.438E-07 0.100E-09 -.272E-08

 POSITION                                       TOTAL-FORCE (eV/Angst)
      0.13670      1.69446      8.18893         0.781873     -0.000000      0.000671
      8.92277      5.08339      3.41321        -0.781873     -0.000000     -0.000671
      4.36803      5.08339      2.17353        -0.178160     -0.000000     -0.000228
      4.69143      1.69446      9.42861         0.178160     -0.000000      0.000228
      1.43529      5.08339     10.66591         0.704138      0.000000     -0.000130
      7.62418      1.69446      0.93623        -0.704138      0.000000      0.000130
      3.06944      1.69446      4.61130         0.244220      0.000000     -0.000242
      5.99002      5.08339      6.99085        -0.244220     -0.000000      0.000242
      1.75027      0.49404      1.68852        -0.137181     -0.000155      0.000174
      7.30920      6.28381      9.91362         0.137181      0.000155     -0.000174
      2.75446      6.28749      7.64186        -0.008318     -0.000040      0.000651
      6.30500      0.49036      3.96028         0.008318      0.000040     -0.000651
      7.30920      3.88297      9.91362         0.137181     -0.000155     -0.000174
      1.75027      2.89488      1.68852        -0.137181      0.000155      0.000174
      6.30500      2.89857      3.96028         0.008318     -0.000040     -0.000651
      2.75446      3.87928      7.64186        -0.008318      0.000040      0.000651
      0.74693      5.08339      6.95520        -0.200002      0.000000      0.000546
      8.31254      1.69446      4.64695         0.200002     -0.000000     -0.000546
      3.75780      1.69446      0.99026         0.155574     -0.000000      0.000184
      5.30166      5.08339     10.61189        -0.155574     -0.000000     -0.000184
      1.78112      1.69446     11.18498        -0.276850      0.000000      0.000197
      7.27835      5.08339      0.41716         0.276850      0.000000     -0.000197
      2.72362      5.08339      5.53260        -0.308941     -0.000000      0.000729
      6.33585      1.69446      6.06954         0.308941     -0.000000     -0.000729
    total drift:                                0.000023     -0.000205      0.000070

  FREE ENERGIE OF THE ION-ELECTRON SYSTEM (eV)
  free  energy   TOTEN  =      -107.62169650 eV

  energy  without entropy=     -107.62169650  energy(sigma->0) =     -107.62169650

 writing wavefunctions
 BZINTS: Fermi energy: -0.401057;144.000000 electrons
         Band energy:***********;  BLOECHL correction:  0.000000