 vasp.5.4.4.18Apr17-6-g9f103f2a35 (build Nov 21 2017 15:30:27) complex

 executed on             LinuxIFC date 2020.11.10  16:13:28

 INCAR:
 POTCAR:   PAW_PBE Ba_sv 06Sep2000
 POTCAR:   PAW_PBE Si 05Jan2001

 POTCAR:   PAW_PBE Ba_sv 06Sep2000
   VRHFIN =Ba: 5s5p6s

   TITEL  = PAW_PBE Ba_sv 06Sep2000
   POMASS =  137.327; ZVAL   =   10.000    mass and valenz
   ENMAX  =  187.210; ENMIN  =  140.408 eV
   QCUT   =   -3.709; QGAM   =    7.419    optimization parameters

   Description
     l     E      TYP  RCUT    TYP  RCUT
     0   .000     23  2.800
     0   .000     23  2.800
     1   .000     23  2.700
     1  2.000     23  2.700
     2   .000     23  2.700
     2   .000     23  2.700

 POTCAR:   PAW_PBE Si 05Jan2001
   VRHFIN =Si: s2p2

   TITEL  = PAW_PBE Si 05Jan2001
   POMASS =   28.085; ZVAL   =    4.000    mass and valenz
   ENMAX  =  245.345; ENMIN  =  184.009 eV
   QCUT   =   -4.246; QGAM   =    8.493    optimization parameters

   Description
     l     E      TYP  RCUT    TYP  RCUT
     0   .000     23  1.900
     0   .000     23  1.900
     1   .000     23  1.900
     1   .000     23  1.900
     2   .000      7  1.900

 Optimization of the real space projectors (new method)

 maximal supplied QI-value         = 13.42
 optimisation between [QCUT,QGAM] = [ 11.40, 22.81] = [ 36.42,145.68] Ry
 Optimized for a Real-space Cutoff    1.56 Angstroem

   l    n(q)    QCUT    max X(q) W(low)/X(q) W(high)/X(q)  e(spline)
   0     11    11.404     7.198    0.14E-04    0.26E-04    0.99E-07
   0     11    11.404    15.603    0.29E-04    0.72E-04    0.44E-06
   1     10    11.404     3.746    0.20E-04    0.24E-04    0.43E-07
   1     10    11.404     4.362    0.22E-03    0.97E-04    0.22E-06
   2     10    11.404     5.782    0.83E-04    0.62E-05    0.27E-06
   2     10    11.404    65.505    0.42E-03    0.31E-04    0.12E-05
 Optimization of the real space projectors (new method)

 maximal supplied QI-value         = 19.84
 optimisation between [QCUT,QGAM] = [ 11.31, 22.82] = [ 35.82,145.81] Ry
 Optimized for a Real-space Cutoff    1.16 Angstroem

   l    n(q)    QCUT    max X(q) W(low)/X(q) W(high)/X(q)  e(spline)
   0      8    11.310     8.708    0.14E-04    0.11E-04    0.43E-08
   0      8    11.310   106.241    0.27E-03    0.30E-03    0.38E-07
   1      7    11.310     5.901    0.82E-05    0.48E-04    0.19E-07
   1      7    11.310    73.241    0.27E-03    0.27E-03    0.74E-07

 PAW_PBE Ba_sv 06Sep2000                :
 PAW_PBE Si 05Jan2001                   :

 POSCAR: ba8 si16
  positions in direct lattice
  velocities in cartesian coordinates
 exchange correlation table for  LEXCH =       43
   RHO(1)=    0.500       N(1)  =     2000
   RHO(2)=  100.500       N(2)  =     4000

 ion  position               nearest neighbor table
   1  0.015  0.250  0.692-  24 3.37  18 3.37  13 3.40  10 3.40  16 3.42  11 3.42  21 3.53  17 3.61
                            17 3.61   5 4.37   5 4.37   7 4.37   4 4.65   4 4.65
   2  0.985  0.750  0.308-  23 3.37  17 3.37   9 3.40  14 3.40  12 3.42  15 3.42  22 3.53  18 3.61
                            18 3.61   6 4.37   6 4.37   8 4.37   3 4.65   3 4.65
   3  0.485  0.750  0.192-  22 3.37  20 3.37  12 3.40  15 3.40   9 3.42  14 3.42  23 3.53  19 3.61
                            19 3.61   7 4.37   7 4.37   5 4.37   2 4.65   2 4.65
   4  0.515  0.250  0.808-  21 3.37  19 3.37  16 3.40  11 3.40  13 3.42  10 3.42  24 3.53  20 3.61
                            20 3.61   8 4.37   8 4.37   6 4.37   1 4.65   1 4.65
   5  0.161  0.750  0.907-  10 3.43  13 3.43  21 3.44  21 3.44  11 3.48  16 3.48  22 3.51   9 3.52
                            14 3.52  17 3.70  20 3.75   1 4.37   1 4.37   3 4.37
   6  0.839  0.250  0.093-  14 3.43   9 3.43  22 3.44  22 3.44  15 3.48  12 3.48  21 3.51  13 3.52
                            10 3.52  18 3.70  19 3.75   2 4.37   2 4.37   4 4.37
   7  0.339  0.250  0.407-  15 3.43  12 3.43  23 3.44  23 3.44  14 3.48   9 3.48  24 3.51  16 3.52
                            11 3.52  19 3.70  18 3.75   3 4.37   3 4.37   1 4.37
   8  0.661  0.750  0.593-  11 3.43  16 3.43  24 3.44  24 3.44  10 3.48  13 3.48  23 3.51  12 3.52
                            15 3.52  20 3.70  17 3.75   4 4.37   4 4.37   2 4.37
   9  0.193  0.071  0.146-  14 2.41  21 2.41  19 2.43   2 3.40   3 3.42   6 3.43   7 3.48   5 3.52

  10  0.807  0.929  0.854-  13 2.41  22 2.41  20 2.43   1 3.40   4 3.42   5 3.43   8 3.48   6 3.52

[...]

  24  0.696  0.250  0.535-  15 2.41  12 2.41  18 2.45   1 3.37   8 3.44   8 3.44   7 3.51   4 3.53

  LATTYP: Found a simple orthorhombic cell.
 ALAT       =     6.7268619782
 B/A-ratio  =     1.3242817429
 C/A-ratio  =     1.7103982072

  Lattice vectors:

 A1 = (   0.0000000000,  -6.7268619782,   0.0000000000)
 A2 = (  -8.9082605047,   0.0000000000,   0.0000000000)
 A3 = (   0.0000000000,   0.0000000000, -11.5056126680)

Analysis of symmetry for initial positions (statically):
 Subroutine PRICEL returns:
 Original cell was already a primitive cell.

 Routine SETGRP: Setting up the symmetry group for a
 simple orthorhombic supercell.

 Subroutine GETGRP returns: Found  8 space group operations
 (whereof  2 operations were pure point group operations)
 out of a pool of  8 trial point group operations.

The static configuration has the point symmetry S_2 .
 The point group associated with its full space group is D_2h.

Analysis of symmetry for dynamics (positions and initial velocities):
 Subroutine PRICEL returns:
 Original cell was already a primitive cell.

 Routine SETGRP: Setting up the symmetry group for a
 simple orthorhombic supercell.

 Subroutine GETGRP returns: Found  8 space group operations
 (whereof  2 operations were pure point group operations)
 out of a pool of  8 trial point group operations.

The dynamic configuration has the point symmetry S_2 .
 The point group associated with its full space group is D_2h.

 Subroutine INISYM returns: Found  8 space group operations
 (whereof  2 operations are pure point group operations),
 and found     1 'primitive' translations

 KPOINTS: k-density: 8.0

Automatic generation of k-mesh.
Space group operators:
 irot       det(A)        alpha          n_x          n_y          n_z        tau_x        tau_y        tau_z
    1     1.000000     0.000000     1.000000     0.000000     0.000000     0.000000     0.000000     0.000000
    2    -1.000000     0.000000     1.000000     0.000000     0.000000     0.000000     0.000000     0.000000
    3     1.000000   180.000000     0.000000     0.000000     1.000000    -0.500000     0.000000    -0.500000
    4    -1.000000   180.000000     0.000000     0.000000     1.000000    -0.500000     0.000000    -0.500000
    5     1.000000   180.000000     1.000000     0.000000     0.000000    -0.500000    -0.500000    -0.500000
    6    -1.000000   180.000000     1.000000     0.000000     0.000000    -0.500000    -0.500000    -0.500000
    7     1.000000   180.000000     0.000000     1.000000     0.000000    -0.000000    -0.500000    -0.000000
    8    -1.000000   180.000000     0.000000     1.000000     0.000000     0.000000    -0.500000     0.000000

 Subroutine IBZKPT returns following result:

 Found     60 irreducible k-points:

 Following reciprocal coordinates:
            Coordinates               Weight
  0.000000  0.000000  0.000000      1.000000
  0.166667  0.000000  0.000000      2.000000
  0.333333  0.000000  0.000000      2.000000
  0.500000  0.000000  0.000000      1.000000
  0.000000  0.125000  0.000000      2.000000
  0.166667  0.125000  0.000000      4.000000
  0.333333  0.125000  0.000000      4.000000
  0.500000  0.125000  0.000000      2.000000
  0.000000  0.250000  0.000000      2.000000
  0.166667  0.250000  0.000000      4.000000
  0.333333  0.250000  0.000000      4.000000
  0.500000  0.250000  0.000000      2.000000
  0.000000  0.375000  0.000000      2.000000
  0.166667  0.375000  0.000000      4.000000
  0.333333  0.375000  0.000000      4.000000
  0.500000  0.375000  0.000000      2.000000
  0.000000  0.500000  0.000000      1.000000
  0.166667  0.500000  0.000000      2.000000
  0.333333  0.500000  0.000000      2.000000
  0.500000  0.500000  0.000000      1.000000
  0.000000  0.000000  0.200000      2.000000
  0.166667  0.000000  0.200000      4.000000
  0.333333  0.000000  0.200000      4.000000
  0.500000  0.000000  0.200000      2.000000
  0.000000  0.125000  0.200000      4.000000
  0.166667  0.125000  0.200000      8.000000
  0.333333  0.125000  0.200000      8.000000
  0.500000  0.125000  0.200000      4.000000
  0.000000  0.250000  0.200000      4.000000
  0.166667  0.250000  0.200000      8.000000
  0.333333  0.250000  0.200000      8.000000
  0.500000  0.250000  0.200000      4.000000
  0.000000  0.375000  0.200000      4.000000
  0.166667  0.375000  0.200000      8.000000
  0.333333  0.375000  0.200000      8.000000
  0.500000  0.375000  0.200000      4.000000
  0.000000  0.500000  0.200000      2.000000
  0.166667  0.500000  0.200000      4.000000
  0.333333  0.500000  0.200000      4.000000
  0.500000  0.500000  0.200000      2.000000
  0.000000  0.000000  0.400000      2.000000
  0.166667  0.000000  0.400000      4.000000
  0.333333  0.000000  0.400000      4.000000
  0.500000  0.000000  0.400000      2.000000
  0.000000  0.125000  0.400000      4.000000
  0.166667  0.125000  0.400000      8.000000
  0.333333  0.125000  0.400000      8.000000
  0.500000  0.125000  0.400000      4.000000
  0.000000  0.250000  0.400000      4.000000
  0.166667  0.250000  0.400000      8.000000
  0.333333  0.250000  0.400000      8.000000
  0.500000  0.250000  0.400000      4.000000
  0.000000  0.375000  0.400000      4.000000
  0.166667  0.375000  0.400000      8.000000
  0.333333  0.375000  0.400000      8.000000
  0.500000  0.375000  0.400000      4.000000
  0.000000  0.500000  0.400000      2.000000
  0.166667  0.500000  0.400000      4.000000
  0.333333  0.500000  0.400000      4.000000
  0.500000  0.500000  0.400000      2.000000

 Following cartesian coordinates:
            Coordinates               Weight
  0.000000  0.000000  0.000000      1.000000
  0.018709  0.000000  0.000000      2.000000
  0.037418  0.000000  0.000000      2.000000
  0.056128  0.000000  0.000000      1.000000
  0.000000  0.018582  0.000000      2.000000
  0.018709  0.018582  0.000000      4.000000
  0.037418  0.018582  0.000000      4.000000
  0.056128  0.018582  0.000000      2.000000
  0.000000  0.037164  0.000000      2.000000
  0.018709  0.037164  0.000000      4.000000
  0.037418  0.037164  0.000000      4.000000
  0.056128  0.037164  0.000000      2.000000
  0.000000  0.055747  0.000000      2.000000
  0.018709  0.055747  0.000000      4.000000
  0.037418  0.055747  0.000000      4.000000
  0.056128  0.055747  0.000000      2.000000
  0.000000  0.074329  0.000000      1.000000
  0.018709  0.074329  0.000000      2.000000
  0.037418  0.074329  0.000000      2.000000
  0.056128  0.074329  0.000000      1.000000
  0.000000  0.000000  0.017383      2.000000
  0.018709  0.000000  0.017383      4.000000
  0.037418  0.000000  0.017383      4.000000
  0.056128  0.000000  0.017383      2.000000
  0.000000  0.018582  0.017383      4.000000
[...]

[...]

 eigenvalue-minimisations  : 10760
 total energy-change (2. order) :-0.7706976E-06  (-0.7706514E-06)
 number of electron     144.0000001 magnetization
 augmentation part      144.0000001 magnetization

 Free energy of the ion-electron system (eV)
  alpha Z        PSCENC =       466.78151634
  Ewald energy   TEWEN  =     -6442.96156159
  -Hartree energ DENC   =      -899.32484706
  -exchange      EXHF   =         0.00000000
  -V(xc)+E(xc)   XCENC  =        49.11024097
  PAW double counting   =      3865.12538590    -3570.76707164
  entropy T*S    EENTRO =         0.00000000
  eigenvalues    EBANDS =      -834.56673629
  atomic energy  EATOM  =      7269.15145414
  Solvation  Ediel_sol  =         0.00000000
  free energy    TOTEN  =       -97.45161922 eV

  energy without entropy =      -97.45161922  energy(sigma->0) =      -97.45161922

 average (electrostatic) potential at core
  the test charge radii are     1.2192  0.9892
  (the norm of the test charge is              1.0000)
       1 -35.9697       2 -35.9697       3 -35.9697       4 -35.9697       5 -36.0793
       6 -36.0793       7 -36.0793       8 -36.0793       9 -85.1089      10 -85.1089
      11 -85.1089      12 -85.1089      13 -85.1089      14 -85.1089      15 -85.1089
      16 -85.1089      17 -85.1782      18 -85.1782      19 -85.1782      20 -85.1782
      21 -85.0671      22 -85.0671      23 -85.0671      24 -85.0671

 E-fermi :   3.5602     XC(G=0):  -8.9674     alpha+bet :-10.5295

 k-point     1 :       0.0000    0.0000    0.0000
  band No.  band energies     occupation
      1     -23.9643      2.00000
      2     -23.9587      2.00000
      3     -23.9551      2.00000
      4     -23.9549      2.00000
      5     -23.8790      2.00000
      6     -23.8759      2.00000
      7     -23.8709      2.00000
      8     -23.8688      2.00000
      9      -9.5413      2.00000
     10      -9.5198      2.00000
     11      -9.4772      2.00000
     12      -9.4702      2.00000
     13      -9.4258      2.00000
     14      -9.3824      2.00000
     15      -9.3788      2.00000
     16      -9.3610      2.00000
     17      -9.3566      2.00000
     18      -9.3289      2.00000
     19      -9.3211      2.00000
     20      -9.3174      2.00000
     21      -9.2729      2.00000
     22      -9.2377      2.00000
     23      -9.2031      2.00000
     24      -9.2021      2.00000
     25      -9.1975      2.00000
     26      -9.1726      2.00000
     27      -9.1598      2.00000
     28      -9.1590      2.00000
     29      -9.1427      2.00000
     30      -9.1413      2.00000
     31      -9.1291      2.00000
     32      -9.1180      2.00000
     33      -7.2112      2.00000
     34      -6.9486      2.00000
     35      -6.9081      2.00000
     36      -6.8846      2.00000
     37      -2.5857      2.00000
     38      -2.5214      2.00000
     39      -2.2573      2.00000
     40      -2.2387      2.00000
     41      -2.1496      2.00000
     42      -2.1307      2.00000
     43      -2.1299      2.00000
     44      -2.0877      2.00000
     45      -2.0291      2.00000
     46      -1.9786      2.00000
     47      -1.9292      2.00000
     48      -1.7579      2.00000
     49       0.0089      2.00000
     50       1.0378      2.00000
     51       1.2279      2.00000
     52       1.2682      2.00000
     53       1.3226      2.00000
     54       1.5398      2.00000
     55       1.7711      2.00000
     56       1.8350      2.00000
     57       1.8420      2.00000
     58       1.8990      2.00000
     59       1.9123      2.00000
     60       2.1401      2.00000
[...]
     74       4.5437      0.00000
     75       4.8823      0.00000
     76       5.0623      0.00000
     77       5.0721      0.00000
     78       5.4311      0.00000
     79       5.6256      0.00000
     80       5.8183      0.00000
     81       5.8555      0.00000
     82       6.0922      0.00000
     83       6.1392      0.00000
     84       6.1455      0.00000
     85       6.1622      0.00000
     86       6.2506      0.00000
     87       6.2802      0.00000
     88       6.6182      0.00000

[...]

 k-point    60 :       0.5000    0.5000    0.4000
  band No.  band energies     occupation
      1     -23.9568      2.00000
      2     -23.9568      2.00000
      3     -23.9568      2.00000
      4     -23.9568      2.00000
      5     -23.8750      2.00000
      6     -23.8750      2.00000
      7     -23.8750      2.00000
      8     -23.8750      2.00000
      9      -9.5355      2.00000
     10      -9.5355      2.00000
     11      -9.5355      2.00000
     12      -9.5355      2.00000
     13      -9.4539      2.00000
     14      -9.4539      2.00000
     15      -9.4539      2.00000
     16      -9.4539      2.00000
     17      -9.3030      2.00000
     18      -9.3030      2.00000
     19      -9.3030      2.00000
     20      -9.3030      2.00000
     21      -9.2122      2.00000
     22      -9.2122      2.00000
     23      -9.2122      2.00000
     24      -9.2122      2.00000
     25      -9.1630      2.00000
     26      -9.1630      2.00000
     27      -9.1630      2.00000
     28      -9.1630      2.00000
     29      -9.1330      2.00000
     30      -9.1330      2.00000
     31      -9.1330      2.00000
     32      -9.1330      2.00000
     33      -6.8956      2.00000
     34      -6.8956      2.00000
     35      -6.8956      2.00000
     36      -6.8956      2.00000
     37      -2.4999      2.00000
     38      -2.4998      2.00000
     39      -2.4998      2.00000
     40      -2.4998      2.00000
     41      -2.1176      2.00000
     42      -2.1176      2.00000
     43      -2.1176      2.00000
     44      -2.1176      2.00000
     45      -1.9580      2.00000
     46      -1.9580      2.00000
     47      -1.9580      2.00000
     48      -1.9580      2.00000
     49       1.2101      2.00000
     50       1.2101      2.00000
     51       1.2101      2.00000
     52       1.2101      2.00000
     53       1.7700      2.00000
     54       1.7700      2.00000
     55       1.7700      2.00000
     56       1.7700      2.00000
     57       2.0442      2.00000
     58       2.0442      2.00000
     59       2.0442      2.00000
     60       2.0442      2.00000
[...]
     74       4.4852      0.00000
     75       4.4852      0.00000
     76       4.4852      0.00000
     77       4.9382      0.00000
     78       4.9382      0.00000
     79       4.9382      0.00000
     80       4.9382      0.00000
     81       5.5798      0.00000
     82       5.5798      0.00000
     83       5.5798      0.00000
     84       5.5799      0.00000
     85       5.9450      0.00000
     86       5.9452      0.00000
     87       5.9455      0.00000
     88       5.9529      0.00000

 soft charge-density along one line, spin component           1
         0         1         2         3         4         5         6         7         8         9
 total charge-density along one line

------------------------ aborting loop because EDIFF is reached ----------------------------------------

 total charge

# of ion       s       p       d       tot
    1        2.017   5.586   0.321   7.925
    2        2.017   5.586   0.321   7.925
    3        2.016   5.588   0.319   7.924
    4        2.016   5.588   0.319   7.924
    5        2.010   5.578   0.323   7.910
    6        2.010   5.578   0.323   7.910
    7        2.010   5.579   0.323   7.911
    8        2.010   5.579   0.323   7.911
    9        0.802   0.861   0.000   1.663
   10        0.802   0.861   0.000   1.663
   11        0.802   0.860   0.000   1.661
   12        0.802   0.860   0.000   1.661
   13        0.803   0.858   0.000   1.661
   14        0.803   0.858   0.000   1.661
   15        0.802   0.861   0.000   1.663
   16        0.802   0.861   0.000   1.663
   17        0.816   0.813   0.000   1.629
   18        0.816   0.813   0.000   1.629
   19        0.817   0.813   0.000   1.630
   20        0.817   0.813   0.000   1.630
   21        0.801   0.858   0.000   1.659
   22        0.801   0.858   0.000   1.659
   23        0.800   0.860   0.000   1.659
   24        0.800   0.860   0.000   1.659
tot         28.991  58.226   2.573  89.790

  FORCE on cell =-STRESS in cart. coord.  units (eV):
  Direction    XX          YY          ZZ          XY          YZ          ZX
  Alpha Z   466.78152   466.78152   466.78152
  Ewald   -2161.39154 -2147.30166 -2134.28631    -0.00000    -0.00000    -0.00014
  Hartree   291.39405   302.53464   305.39860     0.00000    -0.00000     0.00001
  E(xc)    -466.68776  -466.64407  -466.63462    -0.00000    -0.00000    -0.00000
  Local     138.89073   119.93191   104.77559     0.00000     0.00000     0.00009
  n-local   341.53672   339.18634   339.64143    -0.10447    -0.05942    -0.17501
  augment  -167.91126  -166.96972  -167.15767     0.00000     0.00000     0.00000
  Kinetic  1557.25837  1552.40904  1551.42747     0.63071    -0.99200    -0.01525
  Fock        0.00000     0.00000     0.00000     0.00000     0.00000     0.00000
  Total      -0.12917    -0.07199    -0.05401     0.00000     0.00000     0.00000
  in kB      -0.30017    -0.16729    -0.12550     0.00000     0.00000     0.00000

 VOLUME and BASIS-vectors are now :
  energy-cutoff  :      500.00
  volume of cell :      689.47
      direct lattice vectors                 reciprocal lattice vectors
     8.908260505  0.000000000  0.000000000     0.112255361  0.000000000  0.000000000
     0.000000000  6.726861978  0.000000000     0.000000000  0.148657725  0.000000000
     0.000000000  0.000000000 11.505612668     0.000000000  0.000000000  0.086914103

  length of vectors
     8.908260505  6.726861978 11.505612668     0.112255361  0.148657725  0.086914103

 FORCES acting on ions
    electron-ion (+dipol)            ewald-force                    non-local-force                 convergence-correction
   0.283E+01 0.804E-04 0.161E+01   -.316E+01 0.141E-04 -.196E+01   0.327E+00 -.264E-18 0.344E+00   0.381E-03 -.123E-04 -.752E-03
   -.283E+01 0.867E-05 -.161E+01   0.316E+01 -.201E-04 0.196E+01   -.327E+00 -.116E-18 -.344E+00   -.371E-03 0.426E-04 0.766E-03
   -.283E+01 0.447E-05 0.161E+01   0.316E+01 -.201E-04 -.196E+01   -.327E+00 -.323E-18 0.344E+00   -.338E-03 0.426E-04 -.103E-02
   0.283E+01 0.762E-04 -.161E+01   -.316E+01 0.141E-04 0.196E+01   0.327E+00 0.628E-18 -.344E+00   0.344E-03 -.123E-04 0.960E-03
   -.218E+02 0.737E-05 -.555E+01   0.211E+02 -.179E-04 0.561E+01   0.749E+00 -.263E-18 -.703E-01   0.212E-02 0.408E-04 -.247E-02
   0.218E+02 0.789E-04 0.555E+01   -.211E+02 0.172E-04 -.561E+01   -.749E+00 0.648E-18 0.703E-01   -.212E-02 -.148E-04 0.238E-02
   0.218E+02 0.768E-04 -.555E+01   -.211E+02 0.172E-04 0.561E+01   -.749E+00 0.650E-18 -.703E-01   -.211E-02 -.148E-04 -.220E-02
   -.218E+02 0.525E-05 0.555E+01   0.211E+02 -.179E-04 -.561E+01   0.749E+00 0.541E-18 0.703E-01   0.212E-02 0.408E-04 0.237E-02
   0.104E+02 0.305E+02 -.167E+02   -.108E+02 -.318E+02 0.176E+02   0.430E+00 0.133E+01 -.819E+00   0.254E-03 -.196E-03 0.958E-03
   -.104E+02 -.305E+02 0.167E+02   0.108E+02 0.318E+02 -.176E+02   -.430E+00 -.133E+01 0.819E+00   -.260E-03 0.188E-03 -.977E-03
   -.104E+02 -.305E+02 -.167E+02   0.108E+02 0.318E+02 0.176E+02   -.430E+00 -.133E+01 -.819E+00   -.269E-03 0.197E-03 0.101E-02
   0.104E+02 0.305E+02 0.167E+02   -.108E+02 -.318E+02 -.176E+02   0.430E+00 0.133E+01 0.819E+00   0.273E-03 -.186E-03 -.995E-03
   -.104E+02 0.305E+02 0.167E+02   0.108E+02 -.318E+02 -.176E+02   -.430E+00 0.133E+01 0.819E+00   -.259E-03 -.184E-03 -.978E-03
   0.104E+02 -.305E+02 -.167E+02   -.108E+02 0.318E+02 0.176E+02   0.430E+00 -.133E+01 -.819E+00   0.254E-03 0.189E-03 0.958E-03
   0.104E+02 -.305E+02 0.167E+02   -.108E+02 0.318E+02 -.176E+02   0.430E+00 -.133E+01 0.819E+00   0.273E-03 0.179E-03 -.994E-03
   -.104E+02 0.305E+02 -.167E+02   0.108E+02 -.318E+02 0.176E+02   -.430E+00 0.133E+01 -.819E+00   -.269E-03 -.193E-03 0.101E-02
   0.429E+02 -.121E-04 0.630E+00   -.448E+02 -.786E-05 -.142E+01   0.194E+01 -.109E-16 0.790E+00   -.807E-03 0.743E-05 0.648E-03
   -.429E+02 -.684E-06 -.630E+00   0.448E+02 0.815E-05 0.142E+01   -.194E+01 -.610E-17 -.790E+00   0.794E-03 -.713E-05 -.633E-03
   -.429E+02 0.755E-05 0.630E+00   0.448E+02 0.815E-05 -.142E+01   -.194E+01 -.398E-17 0.790E+00   0.813E-03 -.713E-05 0.578E-03
   0.429E+02 -.389E-05 -.630E+00   -.448E+02 -.786E-05 0.142E+01   0.194E+01 -.925E-17 -.790E+00   -.806E-03 0.743E-05 -.598E-03
   0.788E+01 -.421E-05 0.346E+02   -.788E+01 0.875E-05 -.362E+02   -.513E-02 -.227E-17 0.163E+01   0.239E-03 -.735E-05 -.631E-03
   -.788E+01 -.150E-04 -.346E+02   0.788E+01 -.914E-05 0.362E+02   0.513E-02 -.240E-17 -.163E+01   -.246E-03 0.789E-05 0.622E-03
   -.788E+01 -.121E-05 0.346E+02   0.788E+01 -.914E-05 -.362E+02   0.513E-02 -.163E-17 0.163E+01   -.232E-03 0.789E-05 -.628E-03
   0.788E+01 0.953E-05 -.346E+02   -.788E+01 0.875E-05 0.362E+02   -.513E-02 0.351E-18 -.163E+01   0.229E-03 -.735E-05 0.622E-03
   -.273E-03 0.394E-03 0.616E-04   -.231E-13 -.441E-13 -.711E-14   0.867E-18 -.258E-15 0.000E+00   0.424E-05 0.107E-03 -.266E-05

 POSITION                                       TOTAL-FORCE (eV/Angst)
      0.13687      1.68172      7.96340         0.001645     -0.000000      0.002104
      8.77139      5.04515      3.54221        -0.001645     -0.000000     -0.002104
      4.31726      5.04515      2.21059        -0.001645      0.000000      0.002104
      4.59100      1.68172      9.29502         0.001645      0.000000     -0.002104
      1.43158      5.04515     10.42987        -0.003726     -0.000000     -0.003946
      7.47668      1.68172      1.07574         0.003726      0.000000      0.003946
      3.02255      1.68172      4.67706         0.003726      0.000000     -0.003946
      5.88571      5.04515      6.82855        -0.003726      0.000000      0.003946
      1.72337      0.47763      1.68413        -0.000459     -0.003803     -0.004841
      7.18489      6.24923      9.82149         0.000459      0.003803      0.004841
      2.73076      6.24923      7.43693         0.000459      0.003803     -0.004841
      6.17750      0.47763      4.06868        -0.000459     -0.003803      0.004841
      7.18489      3.84106      9.82149         0.000459     -0.003803      0.004841
      1.72337      2.88580      1.68413        -0.000459      0.003803     -0.004841
      6.17750      2.88580      4.06868        -0.000459      0.003803      0.004841
      2.73076      3.84106      7.43693         0.000459     -0.003803     -0.004841
      0.72396      5.04515      6.79944         0.009545     -0.000000      0.002474
      8.18430      1.68172      4.70617        -0.009545     -0.000000     -0.002474
      3.73017      1.68172      1.04664        -0.009545     -0.000000      0.002474
      5.17809      5.04515     10.45898         0.009545      0.000000     -0.002474
      1.74956      1.68172     11.10205         0.003118      0.000000     -0.006028
      7.15870      5.04515      0.40356        -0.003118     -0.000000      0.006028
      2.70457      5.04515      5.34924        -0.003118     -0.000000     -0.006028
      6.20369      1.68172      6.15637         0.003118     -0.000000      0.006028
    total drift:                               -0.000268      0.000501      0.000059

  FREE ENERGIE OF THE ION-ELECTRON SYSTEM (eV)
  free  energy   TOTEN  =       -97.45161922 eV

  energy  without entropy=      -97.45161922  energy(sigma->0) =      -97.45161922

 writing wavefunctions

 total charge

# of ion       s       p       d       tot
    1        2.017   5.586   0.321   7.925
    2        2.017   5.586   0.321   7.925
    3        2.016   5.588   0.319   7.924
    4        2.016   5.588   0.319   7.924
    5        2.010   5.578   0.323   7.910
    6        2.010   5.578   0.323   7.910
    7        2.010   5.579   0.323   7.911
    8        2.010   5.579   0.323   7.911
    9        0.802   0.861   0.000   1.663
   10        0.802   0.861   0.000   1.663
   11        0.802   0.860   0.000   1.661
   12        0.802   0.860   0.000   1.661
   13        0.803   0.858   0.000   1.661
   14        0.803   0.858   0.000   1.661
   15        0.802   0.861   0.000   1.663
   16        0.802   0.861   0.000   1.663
   17        0.816   0.813   0.000   1.629
   18        0.816   0.813   0.000   1.629
   19        0.817   0.813   0.000   1.630
   20        0.817   0.813   0.000   1.630
   21        0.801   0.858   0.000   1.659
   22        0.801   0.858   0.000   1.659
   23        0.800   0.860   0.000   1.659
   24        0.800   0.860   0.000   1.659
tot         28.991  58.226   2.573  89.790

 BZINTS: Fermi energy:  3.560156;144.000000 electrons
         Band energy:-834.566736;  BLOECHL correction:  0.000000