 vasp.5.4.4.18Apr17-6-g9f103f2a35 (build Nov 21 2017 15:30:27) complex

 executed on             LinuxIFC date 2020.11.10  14:08:23

 INCAR:
 POTCAR:   PAW_PBE Ba_sv 06Sep2000
 POTCAR:   PAW_PBE Si 05Jan2001

 POTCAR:   PAW_PBE Ba_sv 06Sep2000
   VRHFIN =Ba: 5s5p6s

   TITEL  = PAW_PBE Ba_sv 06Sep2000
   POMASS =  137.327; ZVAL   =   10.000    mass and valenz
   ENMAX  =  187.210; ENMIN  =  140.408 eV
   QCUT   =   -3.709; QGAM   =    7.419    optimization parameters

   Description
     l     E      TYP  RCUT    TYP  RCUT
     0   .000     23  2.800
     0   .000     23  2.800
     1   .000     23  2.700
     1  2.000     23  2.700
     2   .000     23  2.700
     2   .000     23  2.700

 POTCAR:   PAW_PBE Si 05Jan2001
   VRHFIN =Si: s2p2

   TITEL  = PAW_PBE Si 05Jan2001
   POMASS =   28.085; ZVAL   =    4.000    mass and valenz
   ENMAX  =  245.345; ENMIN  =  184.009 eV
   QCUT   =   -4.246; QGAM   =    8.493    optimization parameters

   Description
     l     E      TYP  RCUT    TYP  RCUT
     0   .000     23  1.900
     0   .000     23  1.900
     1   .000     23  1.900
     1   .000     23  1.900
     2   .000      7  1.900

 Optimization of the real space projectors (new method)

 maximal supplied QI-value         = 13.42
 optimisation between [QCUT,QGAM] = [ 11.40, 22.81] = [ 36.42,145.68] Ry
 Optimized for a Real-space Cutoff    1.56 Angstroem

   l    n(q)    QCUT    max X(q) W(low)/X(q) W(high)/X(q)  e(spline)
   0     11    11.404     7.198    0.14E-04    0.26E-04    0.99E-07
   0     11    11.404    15.603    0.29E-04    0.72E-04    0.44E-06
   1     10    11.404     3.746    0.20E-04    0.24E-04    0.43E-07
   1     10    11.404     4.362    0.22E-03    0.97E-04    0.22E-06
   2     10    11.404     5.782    0.83E-04    0.62E-05    0.27E-06
   2     10    11.404    65.505    0.42E-03    0.31E-04    0.12E-05
 Optimization of the real space projectors (new method)

 maximal supplied QI-value         = 19.84
 optimisation between [QCUT,QGAM] = [ 11.31, 22.82] = [ 35.82,145.81] Ry
 Optimized for a Real-space Cutoff    1.16 Angstroem

   l    n(q)    QCUT    max X(q) W(low)/X(q) W(high)/X(q)  e(spline)
   0      8    11.310     8.708    0.14E-04    0.11E-04    0.43E-08
   0      8    11.310   106.241    0.27E-03    0.30E-03    0.38E-07
   1      7    11.310     5.901    0.82E-05    0.48E-04    0.19E-07
   1      7    11.310    73.241    0.27E-03    0.27E-03    0.74E-07

 PAW_PBE Ba_sv 06Sep2000                :
 PAW_PBE Si 05Jan2001                   :

 POSCAR: ba8 si16
  positions in direct lattice
  velocities in cartesian coordinates
 exchange correlation table for  LEXCH =       43
   RHO(1)=    0.500       N(1)  =     2000
   RHO(2)=  100.500       N(2)  =     4000

 ion  position               nearest neighbor table
   1  0.015  0.250  0.692-  24 3.37  18 3.37  13 3.40  10 3.40  16 3.42  11 3.42  21 3.53  17 3.61
                            17 3.61   5 4.37   5 4.37   7 4.37   4 4.65   4 4.65
   2  0.985  0.750  0.308-  23 3.37  17 3.37   9 3.40  14 3.40  12 3.42  15 3.42  22 3.53  18 3.61
                            18 3.61   6 4.37   6 4.37   8 4.37   3 4.65   3 4.65
   3  0.485  0.750  0.192-  22 3.37  20 3.37  12 3.40  15 3.40   9 3.42  14 3.42  23 3.53  19 3.61
                            19 3.61   7 4.37   7 4.37   5 4.37   2 4.65   2 4.65
   4  0.515  0.250  0.808-  21 3.37  19 3.37  16 3.40  11 3.40  13 3.42  10 3.42  24 3.53  20 3.61
                            20 3.61   8 4.37   8 4.37   6 4.37   1 4.65   1 4.65
   5  0.161  0.750  0.907-  10 3.43  13 3.43  21 3.44  21 3.44  11 3.48  16 3.48  22 3.51   9 3.52
                            14 3.52  17 3.70  20 3.75   1 4.37   1 4.37   3 4.37
   6  0.839  0.250  0.093-  14 3.43   9 3.43  22 3.44  22 3.44  15 3.48  12 3.48  21 3.51  13 3.52
                            10 3.52  18 3.70  19 3.75   2 4.37   2 4.37   4 4.37
   7  0.339  0.250  0.407-  15 3.43  12 3.43  23 3.44  23 3.44  14 3.48   9 3.48  24 3.51  16 3.52
                            11 3.52  19 3.70  18 3.75   3 4.37   3 4.37   1 4.37
   8  0.661  0.750  0.593-  11 3.43  16 3.43  24 3.44  24 3.44  10 3.48  13 3.48  23 3.51  12 3.52
                            15 3.52  20 3.70  17 3.75   4 4.37   4 4.37   2 4.37
   9  0.193  0.071  0.146-  14 2.41  21 2.41  19 2.43   2 3.40   3 3.42   6 3.43   7 3.48   5 3.52

  10  0.807  0.929  0.854-  13 2.41  22 2.41  20 2.43   1 3.40   4 3.42   5 3.43   8 3.48   6 3.52

[...]

  24  0.696  0.250  0.535-  15 2.41  12 2.41  18 2.45   1 3.37   8 3.44   8 3.44   7 3.51   4 3.53

  LATTYP: Found a simple orthorhombic cell.
 ALAT       =     6.7268619782
 B/A-ratio  =     1.3242817429
 C/A-ratio  =     1.7103982072

  Lattice vectors:

 A1 = (   0.0000000000,  -6.7268619782,   0.0000000000)
 A2 = (  -8.9082605047,   0.0000000000,   0.0000000000)
 A3 = (   0.0000000000,   0.0000000000, -11.5056126680)

Analysis of symmetry for initial positions (statically):
 Subroutine PRICEL returns:
 Original cell was already a primitive cell.

 Routine SETGRP: Setting up the symmetry group for a
 simple orthorhombic supercell.

 Subroutine GETGRP returns: Found  8 space group operations
 (whereof  2 operations were pure point group operations)
 out of a pool of  8 trial point group operations.

The static configuration has the point symmetry S_2 .
 The point group associated with its full space group is D_2h.

Analysis of symmetry for dynamics (positions and initial velocities):
 Subroutine PRICEL returns:
 Original cell was already a primitive cell.

 Routine SETGRP: Setting up the symmetry group for a
 simple orthorhombic supercell.

 Subroutine GETGRP returns: Found  8 space group operations
 (whereof  2 operations were pure point group operations)
 out of a pool of  8 trial point group operations.

The dynamic configuration has the point symmetry S_2 .
 The point group associated with its full space group is D_2h.

 Subroutine INISYM returns: Found  8 space group operations
 (whereof  2 operations are pure point group operations),
 and found     1 'primitive' translations

 KPOINTS: k-density: 8.0

Automatic generation of k-mesh.
Space group operators:
 irot       det(A)        alpha          n_x          n_y          n_z        tau_x        tau_y        tau_z
    1     1.000000     0.000000     1.000000     0.000000     0.000000     0.000000     0.000000     0.000000
    2    -1.000000     0.000000     1.000000     0.000000     0.000000     0.000000     0.000000     0.000000
    3     1.000000   180.000000     0.000000     0.000000     1.000000    -0.500000     0.000000    -0.500000
    4    -1.000000   180.000000     0.000000     0.000000     1.000000    -0.500000     0.000000    -0.500000
    5     1.000000   180.000000     1.000000     0.000000     0.000000    -0.500000    -0.500000    -0.500000
    6    -1.000000   180.000000     1.000000     0.000000     0.000000    -0.500000    -0.500000    -0.500000
    7     1.000000   180.000000     0.000000     1.000000     0.000000    -0.000000    -0.500000    -0.000000
    8    -1.000000   180.000000     0.000000     1.000000     0.000000     0.000000    -0.500000     0.000000

 Subroutine IBZKPT returns following result:

 Found     15 irreducible k-points:

 Following reciprocal coordinates:
            Coordinates               Weight
  0.000000  0.000000  0.000000      1.000000
  0.000000  0.125000  0.000000      2.000000
  0.000000  0.250000  0.000000      2.000000
  0.000000  0.375000  0.000000      2.000000
  0.000000  0.500000  0.000000      1.000000
  0.000000  0.000000  0.200000      2.000000
  0.000000  0.125000  0.200000      4.000000
  0.000000  0.250000  0.200000      4.000000
  0.000000  0.375000  0.200000      4.000000
  0.000000  0.500000  0.200000      2.000000
  0.000000  0.000000  0.400000      2.000000
  0.000000  0.125000  0.400000      4.000000
  0.000000  0.250000  0.400000      4.000000
  0.000000  0.375000  0.400000      4.000000
  0.000000  0.500000  0.400000      2.000000

 Following cartesian coordinates:
            Coordinates               Weight
  0.000000  0.000000  0.000000      1.000000
  0.000000  0.018582  0.000000      2.000000
  0.000000  0.037164  0.000000      2.000000
  0.000000  0.055747  0.000000      2.000000
  0.000000  0.074329  0.000000      1.000000
  0.000000  0.000000  0.017383      2.000000
  0.000000  0.018582  0.017383      4.000000
  0.000000  0.037164  0.017383      4.000000
  0.000000  0.055747  0.017383      4.000000
  0.000000  0.074329  0.017383      2.000000
  0.000000  0.000000  0.034766      2.000000
  0.000000  0.018582  0.034766      4.000000
  0.000000  0.037164  0.034766      4.000000
  0.000000  0.055747  0.034766      4.000000
  0.000000  0.074329  0.034766      2.000000

 TETIRR: Found    108 inequivalent tetrahedra from      240

 SYSTEM =  unknown system
 POSCAR =  ba8 si16

 Startparameter for this run:
   NWRITE =      2    write-flag & timer
   PREC   = normal    normal or accurate (medium, high low for compatibility)
   ISTART =      0    job   : 0-new  1-cont  2-samecut
   ICHARG =     11    charge: 1-file 2-atom 10-const
   ISPIN  =      1    spin polarized calculation?
   LNONCOLLINEAR =      F non collinear calculations
   LSORBIT =      F    spin-orbit coupling
   INIWAV =      1    electr: 0-lowe 1-rand  2-diag
   LASPH  =      T    aspherical Exc in radial PAW
   METAGGA=      F    non-selfconsistent MetaGGA calc.

 Electronic Relaxation 1
   ENCUT  =  500.0 eV  36.75 Ry    6.06 a.u.  16.24 12.26 20.98*2*pi/ulx,y,z
   ENINI  =  500.0     initial cutoff
   ENAUG  =  351.2 eV  augmentation charge cutoff
   NELM   =    100;   NELMIN=  2; NELMDL= -5     # of ELM steps
   EDIFF  = 0.1E-05   stopping-criterion for ELM
   LREAL  =      T    real-space projection
   NLSPLINE    = F    spline interpolate recip. space projectors
   LCOMPAT=      F    compatible to vasp.4.4
   GGA_COMPAT  = T    GGA compatible to vasp.4.4-vasp.4.6
   LMAXPAW     = -100 max onsite density
   LMAXMIX     =    2 max onsite mixed and CHGCAR
   VOSKOWN=      0    Vosko Wilk Nusair interpolation
   ROPT   =   -0.00050  -0.00050
 Ionic relaxation
   EDIFFG = -.1E-01   stopping-criterion for IOM
   NSW    =      0    number of steps for IOM
   NBLOCK =      1;   KBLOCK =      1    inner block; outer block
   IBRION =     -1    ionic relax: 0-MD 1-quasi-New 2-CG
   NFREE  =      0    steps in history (QN), initial steepest desc. (CG)
   ISIF   =      2    stress and relaxation
   IWAVPR =     10    prediction:  0-non 1-charg 2-wave 3-comb
   ISYM   =      2    0-nonsym 1-usesym 2-fastsym
   LCORR  =      T    Harris-Foulkes like correction to forces

   POTIM  = 0.3000    time-step for ionic-motion
   TEIN   =    0.0    initial temperature
   TEBEG  =    0.0;   TEEND  =   0.0 temperature during run
   SMASS  =  -3.00    Nose mass-parameter (am)
   estimated Nose-frequenzy (Omega)   =  0.10E-29 period in steps =****** mass=  -0.181E-26a.u.
   SCALEE = 1.0000    scale energy and forces
   NPACO  =    256;   APACO  = 16.0  distance and # of slots for P.C.
   PSTRESS=    0.0 pullay stress

  Mass of Ions in am
   POMASS = 137.33 28.09
  Ionic Valenz
   ZVAL   =  10.00  4.00
  Atomic Wigner-Seitz radii
  virtual crystal weights
[...]

[...]

 eigenvalue-minimisations  :  2832
 total energy-change (2. order) :-0.7127674E-06  (-0.7127795E-06)
 number of electron     144.0000001 magnetization
 augmentation part      144.0000001 magnetization

 Free energy of the ion-electron system (eV)
  alpha Z        PSCENC =       466.78151634
  Ewald energy   TEWEN  =     -6442.96156159
  -Hartree energ DENC   =      -899.32484706
  -exchange      EXHF   =         0.00000000
  -V(xc)+E(xc)   XCENC  =        49.11024097
  PAW double counting   =      3865.12538590    -3570.76707164
  entropy T*S    EENTRO =         0.00000000
  eigenvalues    EBANDS =      -835.89974596
  atomic energy  EATOM  =      7269.15145414
  Solvation  Ediel_sol  =         0.00000000
  free energy    TOTEN  =       -98.78462889 eV

  energy without entropy =      -98.78462889  energy(sigma->0) =      -98.78462889

 average (electrostatic) potential at core
  the test charge radii are     1.2192  0.9892
  (the norm of the test charge is              1.0000)
       1 -35.9697       2 -35.9697       3 -35.9697       4 -35.9697       5 -36.0793
       6 -36.0793       7 -36.0793       8 -36.0793       9 -85.1089      10 -85.1089
      11 -85.1089      12 -85.1089      13 -85.1089      14 -85.1089      15 -85.1089
      16 -85.1089      17 -85.1782      18 -85.1782      19 -85.1782      20 -85.1782
      21 -85.0671      22 -85.0671      23 -85.0671      24 -85.0671

 E-fermi :   3.5625     XC(G=0):  -8.9674     alpha+bet :-10.5295

 k-point     1 :       0.0000    0.0000    0.0000
  band No.  band energies     occupation
      1     -23.9643      2.00000
      2     -23.9587      2.00000
      3     -23.9551      2.00000
      4     -23.9549      2.00000
      5     -23.8790      2.00000
      6     -23.8759      2.00000
      7     -23.8709      2.00000
      8     -23.8688      2.00000
      9      -9.5413      2.00000
     10      -9.5198      2.00000
     11      -9.4772      2.00000
     12      -9.4702      2.00000
     13      -9.4258      2.00000
     14      -9.3824      2.00000
     15      -9.3788      2.00000
     16      -9.3610      2.00000
     17      -9.3566      2.00000
     18      -9.3289      2.00000
     19      -9.3211      2.00000
     20      -9.3174      2.00000
     21      -9.2729      2.00000
     22      -9.2377      2.00000
     23      -9.2031      2.00000
     24      -9.2021      2.00000
     25      -9.1975      2.00000
     26      -9.1726      2.00000
     27      -9.1598      2.00000
     28      -9.1590      2.00000
     29      -9.1427      2.00000
     30      -9.1413      2.00000
     31      -9.1291      2.00000
     32      -9.1180      2.00000
     33      -7.2112      2.00000
     34      -6.9486      2.00000
     35      -6.9081      2.00000
     36      -6.8846      2.00000
     37      -2.5857      2.00000
     38      -2.5214      2.00000
     39      -2.2573      2.00000
     40      -2.2387      2.00000
     41      -2.1496      2.00000
     42      -2.1307      2.00000
     43      -2.1299      2.00000
     44      -2.0877      2.00000
     45      -2.0291      2.00000
     46      -1.9786      2.00000
     47      -1.9292      2.00000
     48      -1.7579      2.00000
     49       0.0089      2.00000
     50       1.0378      2.00000
     51       1.2279      2.00000
     52       1.2682      2.00000
     53       1.3226      2.00000
     54       1.5398      2.00000
     55       1.7711      2.00000
     56       1.8350      2.00000
     57       1.8420      2.00000
     58       1.8990      2.00000
     59       1.9123      2.00000
     60       2.1401      2.00000
[...]
     74       4.5437      0.00000
     75       4.8823      0.00000
     76       5.0623      0.00000
     77       5.0721      0.00000
     78       5.4311      0.00000
     79       5.6256      0.00000
     80       5.8183      0.00000
     81       5.8555      0.00000
     82       6.0922      0.00000
     83       6.1392      0.00000
     84       6.1455      0.00000
     85       6.1622      0.00000
     86       6.2506      0.00000
     87       6.2802      0.00000
     88       6.6182      0.00000

[...]

 k-point    15 :       0.0000    0.5000    0.4000
  band No.  band energies     occupation
      1     -23.9571      2.00000
      2     -23.9571      2.00000
      3     -23.9565      2.00000
      4     -23.9565      2.00000
      5     -23.8797      2.00000
      6     -23.8797      2.00000
      7     -23.8703      2.00000
      8     -23.8703      2.00000
      9      -9.5568      2.00000
     10      -9.5568      2.00000
     11      -9.4776      2.00000
     12      -9.4776      2.00000
     13      -9.4674      2.00000
     14      -9.4674      2.00000
     15      -9.4183      2.00000
     16      -9.4183      2.00000
     17      -9.3466      2.00000
     18      -9.3466      2.00000
     19      -9.3025      2.00000
     20      -9.3025      2.00000
     21      -9.2675      2.00000
     22      -9.2675      2.00000
     23      -9.2068      2.00000
     24      -9.2068      2.00000
     25      -9.1748      2.00000
     26      -9.1748      2.00000
     27      -9.1402      2.00000
     28      -9.1402      2.00000
     29      -9.1243      2.00000
     30      -9.1243      2.00000
     31      -9.1123      2.00000
     32      -9.1123      2.00000
     33      -6.9255      2.00000
     34      -6.9255      2.00000
     35      -6.9109      2.00000
     36      -6.9109      2.00000
     37      -2.5873      2.00000
     38      -2.5873      2.00000
     39      -2.1599      2.00000
     40      -2.1599      2.00000
     41      -2.1369      2.00000
     42      -2.1369      2.00000
     43      -2.0499      2.00000
     44      -2.0499      2.00000
     45      -2.0155      2.00000
     46      -2.0155      2.00000
     47      -1.8839      2.00000
     48      -1.8839      2.00000
     49       1.0503      2.00000
     50       1.0503      2.00000
     51       1.1402      2.00000
     52       1.1402      2.00000
     53       1.3819      2.00000
     54       1.3819      2.00000
     55       1.5049      2.00000
     56       1.5049      2.00000
     57       2.0040      2.00000
     58       2.0040      2.00000
     59       2.0726      2.00000
     60       2.0726      2.00000
[...]
     74       4.2922      0.00000
     75       4.4242      0.00000
     76       4.4242      0.00000
     77       5.0946      0.00000
     78       5.0946      0.00000
     79       5.3011      0.00000
     80       5.3011      0.00000
     81       5.6046      0.00000
     82       5.6046      0.00000
     83       5.6323      0.00000
     84       5.6323      0.00000
     85       6.1680      0.00000
     86       6.1692      0.00000
     87       6.3693      0.00000
     88       6.3867      0.00000

 soft charge-density along one line, spin component           1
         0         1         2         3         4         5         6         7         8         9
 total charge-density along one line

------------------------ aborting loop because EDIFF is reached ----------------------------------------

 total charge

# of ion       s       p       d       tot
    1        2.016   5.588   0.315   7.919
    2        2.016   5.588   0.315   7.919
    3        2.016   5.588   0.315   7.919
    4        2.016   5.588   0.315   7.919
    5        2.015   5.565   0.351   7.931
    6        2.015   5.565   0.351   7.931
    7        2.015   5.565   0.351   7.931
    8        2.015   5.565   0.351   7.931
    9        0.804   0.857   0.000   1.661
   10        0.804   0.857   0.000   1.661
   11        0.804   0.855   0.000   1.659
   12        0.804   0.855   0.000   1.659
   13        0.804   0.855   0.000   1.659
   14        0.804   0.855   0.000   1.659
   15        0.804   0.857   0.000   1.661
   16        0.804   0.857   0.000   1.661
   17        0.819   0.797   0.000   1.616
   18        0.819   0.797   0.000   1.616
   19        0.819   0.797   0.000   1.616
   20        0.819   0.797   0.000   1.616
   21        0.803   0.860   0.000   1.663
   22        0.803   0.860   0.000   1.663
   23        0.803   0.860   0.000   1.663
   24        0.803   0.860   0.000   1.663
tot         29.046  58.084   2.662  89.792

  FORCE on cell =-STRESS in cart. coord.  units (eV):
  Direction    XX          YY          ZZ          XY          YZ          ZX
  Alpha Z   466.78152   466.78152   466.78152
  Ewald   -2161.39154 -2147.30166 -2134.28631    -0.00000    -0.00000    -0.00014
  Hartree   293.54472   302.01075   304.04131     0.00000    -0.00000     0.00001
  E(xc)    -466.46310  -466.71874  -466.63550    -0.00000    -0.00000    -0.00000
  Local     137.08988   118.97003   107.64817     0.00000     0.00000     0.00008
  n-local   335.10839   340.31290   339.78742     0.00000    -0.08608    -0.00001
  augment  -167.66628  -167.72005  -167.78857     0.00000     0.00000     0.00000
  Kinetic  1551.47776  1553.95394  1553.82577    -0.00003    -1.11770     0.00000
  Fock        0.00000     0.00000     0.00000     0.00000     0.00000     0.00000
  Total     -11.51866     0.28868     3.37381     0.00000     0.00000     0.00000
  in kB     -26.76685     0.67083     7.83999     0.00000     0.00000     0.00000

 VOLUME and BASIS-vectors are now :
  energy-cutoff  :      500.00
  volume of cell :      689.47
      direct lattice vectors                 reciprocal lattice vectors
     8.908260505  0.000000000  0.000000000     0.112255361  0.000000000  0.000000000
     0.000000000  6.726861978  0.000000000     0.000000000  0.148657725  0.000000000
     0.000000000  0.000000000 11.505612668     0.000000000  0.000000000  0.086914103

  length of vectors
     8.908260505  6.726861978 11.505612668     0.112255361  0.148657725  0.086914103

 FORCES acting on ions
    electron-ion (+dipol)            ewald-force                    non-local-force                 convergence-correction
   0.279E+01 0.804E-04 0.189E+01   -.316E+01 0.141E-04 -.196E+01   0.347E+00 -.186E-18 0.380E+00   0.455E-01 -.123E-04 -.270E+00
   -.279E+01 0.868E-05 -.189E+01   0.316E+01 -.201E-04 0.196E+01   -.347E+00 -.171E-18 -.380E+00   -.455E-01 0.426E-04 0.270E+00
   -.279E+01 0.448E-05 0.189E+01   0.316E+01 -.201E-04 -.196E+01   -.347E+00 -.152E-18 0.380E+00   -.455E-01 0.426E-04 -.270E+00
   0.279E+01 0.762E-04 -.189E+01   -.316E+01 0.141E-04 0.196E+01   0.347E+00 0.412E-19 -.380E+00   0.455E-01 -.123E-04 0.270E+00
   -.214E+02 0.745E-05 -.513E+01   0.211E+02 -.179E-04 0.561E+01   0.709E+00 0.332E-18 -.457E-01   -.166E+00 0.407E-04 -.319E+00
   0.214E+02 0.792E-04 0.513E+01   -.211E+02 0.172E-04 -.561E+01   -.709E+00 -.383E-18 0.457E-01   0.166E+00 -.150E-04 0.319E+00
   0.214E+02 0.770E-04 -.513E+01   -.211E+02 0.172E-04 0.561E+01   -.709E+00 0.185E-18 -.457E-01   0.166E+00 -.150E-04 -.318E+00
   -.214E+02 0.525E-05 0.513E+01   0.211E+02 -.179E-04 -.561E+01   0.709E+00 0.388E-18 0.457E-01   -.166E+00 0.408E-04 0.319E+00
   0.101E+02 0.307E+02 -.169E+02   -.108E+02 -.318E+02 0.176E+02   0.396E+00 0.123E+01 -.815E+00   0.202E+00 -.405E-01 0.961E-01
   -.101E+02 -.307E+02 0.169E+02   0.108E+02 0.318E+02 -.176E+02   -.396E+00 -.123E+01 0.815E+00   -.202E+00 0.405E-01 -.962E-01
   -.101E+02 -.307E+02 -.169E+02   0.108E+02 0.318E+02 0.176E+02   -.396E+00 -.123E+01 -.815E+00   -.202E+00 0.405E-01 0.962E-01
   0.101E+02 0.307E+02 0.169E+02   -.108E+02 -.318E+02 -.176E+02   0.396E+00 0.123E+01 0.815E+00   0.202E+00 -.404E-01 -.962E-01
   -.101E+02 0.307E+02 0.169E+02   0.108E+02 -.318E+02 -.176E+02   -.396E+00 0.123E+01 0.815E+00   -.202E+00 -.404E-01 -.962E-01
   0.101E+02 -.307E+02 -.169E+02   -.108E+02 0.318E+02 0.176E+02   0.396E+00 -.123E+01 -.815E+00   0.202E+00 0.405E-01 0.961E-01
   0.101E+02 -.307E+02 0.169E+02   -.108E+02 0.318E+02 -.176E+02   0.396E+00 -.123E+01 0.815E+00   0.202E+00 0.404E-01 -.962E-01
   -.101E+02 0.307E+02 -.169E+02   0.108E+02 -.318E+02 0.176E+02   -.396E+00 0.123E+01 -.815E+00   -.202E+00 -.405E-01 0.962E-01
   0.438E+02 -.121E-04 0.103E+01   -.448E+02 -.786E-05 -.142E+01   0.918E+00 0.449E-18 0.446E+00   -.430E-01 0.742E-05 -.363E-01
   -.438E+02 -.776E-06 -.103E+01   0.448E+02 0.815E-05 0.142E+01   -.918E+00 -.219E-18 -.446E+00   0.430E-01 -.713E-05 0.363E-01
   -.438E+02 0.743E-05 0.103E+01   0.448E+02 0.815E-05 -.142E+01   -.918E+00 -.853E-18 0.446E+00   0.430E-01 -.711E-05 -.364E-01
   0.438E+02 -.389E-05 -.103E+01   -.448E+02 -.786E-05 0.142E+01   0.918E+00 -.148E-18 -.446E+00   -.430E-01 0.744E-05 0.364E-01
   0.770E+01 -.430E-05 0.343E+02   -.788E+01 0.875E-05 -.362E+02   0.123E-02 0.337E-18 0.183E+01   0.212E+00 -.731E-05 0.519E-01
   -.770E+01 -.151E-04 -.343E+02   0.788E+01 -.914E-05 0.362E+02   -.123E-02 -.781E-18 -.183E+01   -.212E+00 0.793E-05 -.520E-01
   -.770E+01 -.127E-05 0.343E+02   0.788E+01 -.914E-05 -.362E+02   -.123E-02 -.953E-18 0.183E+01   -.212E+00 0.791E-05 0.519E-01
   0.770E+01 0.947E-05 -.343E+02   -.788E+01 0.875E-05 0.362E+02   0.123E-02 0.536E-18 -.183E+01   0.212E+00 -.734E-05 -.520E-01
   -.273E-03 0.394E-03 0.608E-04   -.231E-13 -.441E-13 -.711E-14   -.222E-15 -.163E-17 0.222E-15   0.457E-05 0.107E-03 -.223E-05

 POSITION                                       TOTAL-FORCE (eV/Angst)
      0.13687      1.68172      7.96340         0.021993      0.000000      0.045184
      8.77139      5.04515      3.54221        -0.021993      0.000000     -0.045184
      4.31726      5.04515      2.21059        -0.021993      0.000000      0.045184
      4.59100      1.68172      9.29502         0.021993     -0.000000     -0.045184
      1.43158      5.04515     10.42987         0.159930     -0.000000      0.118844
      7.47668      1.68172      1.07574        -0.159930     -0.000000     -0.118844
      3.02255      1.68172      4.67706        -0.159930     -0.000000      0.118844
      5.88571      5.04515      6.82855         0.159930     -0.000000     -0.118844
      1.72337      0.47763      1.68413        -0.072619      0.058801     -0.061144
      7.18489      6.24923      9.82149         0.072619     -0.058801      0.061144
      2.73076      6.24923      7.43693         0.072619     -0.058801     -0.061144
      6.17750      0.47763      4.06868        -0.072619      0.058801      0.061144
      7.18489      3.84106      9.82149         0.072619      0.058801      0.061144
      1.72337      2.88580      1.68413        -0.072619     -0.058801     -0.061144
      6.17750      2.88580      4.06868        -0.072619     -0.058801      0.061144
      2.73076      3.84106      7.43693         0.072619      0.058801     -0.061144
      0.72396      5.04515      6.79944        -0.113417     -0.000000      0.023309
      8.18430      1.68172      4.70617         0.113417      0.000000     -0.023309
      3.73017      1.68172      1.04664         0.113417     -0.000000      0.023309
      5.17809      5.04515     10.45898        -0.113417      0.000000     -0.023309
      1.74956      1.68172     11.10205         0.036073      0.000000     -0.055766
      7.15870      5.04515      0.40356        -0.036073     -0.000000      0.055766
      2.70457      5.04515      5.34924        -0.036073     -0.000000     -0.055766
      6.20369      1.68172      6.15637         0.036073      0.000000      0.055766
    total drift:                               -0.000269      0.000500      0.000059

  FREE ENERGIE OF THE ION-ELECTRON SYSTEM (eV)
  free  energy   TOTEN  =       -98.78462889 eV

  energy  without entropy=      -98.78462889  energy(sigma->0) =      -98.78462889

 writing wavefunctions

 total charge

# of ion       s       p       d       tot
    1        2.016   5.588   0.315   7.919
    2        2.016   5.588   0.315   7.919
    3        2.016   5.588   0.315   7.919
    4        2.016   5.588   0.315   7.919
    5        2.015   5.565   0.351   7.931
    6        2.015   5.565   0.351   7.931
    7        2.015   5.565   0.351   7.931
    8        2.015   5.565   0.351   7.931
    9        0.804   0.857   0.000   1.661
   10        0.804   0.857   0.000   1.661
   11        0.804   0.855   0.000   1.659
   12        0.804   0.855   0.000   1.659
   13        0.804   0.855   0.000   1.659
   14        0.804   0.855   0.000   1.659
   15        0.804   0.857   0.000   1.661
   16        0.804   0.857   0.000   1.661
   17        0.819   0.797   0.000   1.616
   18        0.819   0.797   0.000   1.616
   19        0.819   0.797   0.000   1.616
   20        0.819   0.797   0.000   1.616
   21        0.803   0.860   0.000   1.663
   22        0.803   0.860   0.000   1.663
   23        0.803   0.860   0.000   1.663
   24        0.803   0.860   0.000   1.663
tot         29.046  58.084   2.662  89.792

 BZINTS: Fermi energy:  3.562500;144.000000 electrons
         Band energy:-835.899746;  BLOECHL correction:  0.000000